********************************************************************************
Field Output Report, written Sat Jun 23 00:13:18 2018

Source 1
---------

   ODB: C:/Users/lucas_omena/Dropbox/Mestrado/Disciplinas/MEF/Novos Exemplos/Q4_15.odb
   Step: Step_Load
   Frame: Increment      1: Step Time =    1.000

Loc 1 : Nodal values from source 1

Output sorted by column "Node Label".

Field Output reported at nodes for part: PART_GEOMETRY-1
   Computation algorithm: EXTRAPOLATE_COMPUTE_AVERAGE
   Averaged at nodes
   Averaging regions: ODB_REGIONS

      Node Label    RF.Magnitude          RF.RF1          RF.RF2     U.Magnitude            U.U1            U.U2     E.Max. In-P  E.Max. In-P(a)     E.Min. In-P     E.Out-of-Pl     E.Max. Prin  E.Max. Prin(a)     E.Mid. Prin     E.Min. Prin           E.E11           E.E22           E.E33           E.E12         S.Mises     S.Max. In-P  S.Max. In-P(a)     S.Min. In-P     S.Out-of-Pl     S.Max. Prin  S.Max. Prin(a)     S.Mid. Prin     S.Min. Prin        S.Tresca      S.Pressure     S.Third Inv           S.S11           S.S22           S.S33           S.S12
                          @Loc 1          @Loc 1          @Loc 1          @Loc 1          @Loc 1          @Loc 1          @Loc 1          @Loc 1          @Loc 1          @Loc 1          @Loc 1          @Loc 1          @Loc 1          @Loc 1          @Loc 1          @Loc 1          @Loc 1          @Loc 1          @Loc 1          @Loc 1          @Loc 1          @Loc 1          @Loc 1          @Loc 1          @Loc 1          @Loc 1          @Loc 1          @Loc 1          @Loc 1          @Loc 1          @Loc 1          @Loc 1          @Loc 1          @Loc 1
---------------------------------------------------------------------------------------------------------------------------------------------------------------------------------------------------------------------------------------------------------------------------------------------------------------------------------------------------------------------------------------------------------------------------------------------------------------------------------------------------------------------------------------------------------------------------------
               1     294.796E+03     90.1966E+03     280.659E+03              0.    -90.1966E-33    -280.659E-33     14.8812E-06    -176.292E-06    -176.292E-06              0.     14.8812E-06    -176.292E-06              0.    -176.292E-06    -454.747E-15    -161.411E-06              0.    -102.439E-06     34.3579E+06    -8.35305E+06    -37.7643E+06    -37.7643E+06              0.              0.    -37.7643E+06    -8.35305E+06    -37.7643E+06     37.7643E+06     15.3724E+06    -31.9513E+06    -10.6425E+06    -35.4749E+06              0.    -7.87991E+06
               2     408.581E+03     64.6852E+03     403.428E+03              0.    -64.6852E-33    -403.428E-33     7.85167E-06    -128.783E-06    -128.783E-06              0.     7.85167E-06    -128.783E-06              0.    -128.783E-06     227.374E-15    -120.932E-06              0.    -63.5977E-06     25.0971E+06    -6.76557E+06    -27.7864E+06    -27.7864E+06              0.              0.    -27.7864E+06    -6.76557E+06    -27.7864E+06     27.7864E+06     11.5173E+06    -22.9069E+06    -7.97352E+06    -26.5784E+06              0.    -4.89213E+06
               3     375.459E+03     52.1268E+03     371.822E+03              0.    -52.1268E-33    -371.822E-33     4.25199E-06    -118.365E-06    -118.365E-06              0.     4.25199E-06    -118.365E-06              0.    -118.365E-06     454.747E-15    -114.113E-06              0.    -44.8681E-06     23.0790E+06    -6.86976E+06    -25.7339E+06    -25.7339E+06              0.              0.    -25.7339E+06    -6.86976E+06    -25.7339E+06     25.7339E+06     10.8679E+06    -20.5830E+06    -7.52391E+06    -25.0797E+06              0.    -3.45139E+06
               4     366.264E+03     37.3748E+03     364.352E+03              0.    -37.3748E-33    -364.352E-33     2.26959E-06    -113.283E-06    -113.283E-06              0.     2.26959E-06    -113.283E-06              0.    -113.283E-06     511.591E-15    -111.014E-06              0.    -32.0691E-06     22.1029E+06    -6.97042E+06    -24.7478E+06    -24.7478E+06              0.              0.    -24.7478E+06    -6.97042E+06    -24.7478E+06     24.7478E+06     10.5727E+06    -19.3884E+06    -7.31959E+06    -24.3986E+06              0.    -2.46686E+06
               5     361.933E+03     25.5667E+03     361.029E+03              0.    -25.5667E-33    -361.029E-33     1.06471E-06    -110.754E-06    -110.754E-06              0.     1.06471E-06    -110.754E-06              0.    -110.754E-06     369.482E-15    -109.689E-06              0.    -21.7182E-06     21.6217E+06    -7.06843E+06    -24.2712E+06    -24.2712E+06              0.              0.    -24.2712E+06    -7.06843E+06    -24.2712E+06     24.2712E+06     10.4466E+06    -18.7447E+06    -7.23223E+06    -24.1074E+06              0.    -1.67063E+06
               6     359.937E+03     14.9047E+03     359.628E+03              0.    -14.9047E-33    -359.628E-33     364.061E-09    -109.410E-06    -109.410E-06              0.     364.061E-09    -109.410E-06              0.    -109.410E-06     170.530E-15    -109.046E-06              0.    -12.6225E-06     21.3679E+06    -7.13386E+06    -24.0222E+06    -24.0222E+06              0.              0.    -24.0222E+06    -7.13386E+06    -24.0222E+06     24.0222E+06     10.3854E+06    -18.3873E+06    -7.18987E+06    -23.9662E+06              0.    -970.964E+03
               7     359.115E+03     4.90213E+03     359.082E+03              0.    -4.90213E-33    -359.082E-33     39.4608E-09    -108.823E-06    -108.823E-06              0.     39.4608E-09    -108.823E-06              0.    -108.823E-06     85.2651E-15    -108.783E-06              0.    -4.14451E-06     21.2575E+06    -7.16647E+06    -23.9145E+06    -23.9145E+06              0.              0.    -23.9145E+06    -7.16647E+06    -23.9145E+06     23.9145E+06     10.3603E+06    -18.2263E+06    -7.17254E+06    -23.9085E+06              0.    -318.808E+03
               8     359.115E+03    -4.90213E+03     359.082E+03              0.     4.90213E-33    -359.082E-33     39.4608E-09    -108.823E-06    -108.823E-06              0.     39.4608E-09    -108.823E-06              0.    -108.823E-06     170.530E-15    -108.783E-06              0.     4.14451E-06     21.2575E+06    -7.16647E+06    -23.9145E+06    -23.9145E+06              0.              0.    -23.9145E+06    -7.16647E+06    -23.9145E+06     23.9145E+06     10.3603E+06    -18.2263E+06    -7.17254E+06    -23.9085E+06              0.     318.808E+03
               9     359.937E+03    -14.9047E+03     359.628E+03              0.     14.9047E-33    -359.628E-33     364.061E-09    -109.410E-06    -109.410E-06              0.     364.061E-09    -109.410E-06              0.    -109.410E-06     142.109E-15    -109.046E-06              0.     12.6225E-06     21.3679E+06    -7.13386E+06    -24.0222E+06    -24.0222E+06              0.              0.    -24.0222E+06    -7.13386E+06    -24.0222E+06     24.0222E+06     10.3854E+06    -18.3873E+06    -7.18987E+06    -23.9662E+06              0.     970.964E+03
              10     361.933E+03    -25.5667E+03     361.029E+03              0.     25.5667E-33    -361.029E-33     1.06471E-06    -110.754E-06    -110.754E-06              0.     1.06471E-06    -110.754E-06              0.    -110.754E-06     397.904E-15    -109.689E-06              0.     21.7182E-06     21.6217E+06    -7.06843E+06    -24.2712E+06    -24.2712E+06              0.              0.    -24.2712E+06    -7.06843E+06    -24.2712E+06     24.2712E+06     10.4466E+06    -18.7447E+06    -7.23223E+06    -24.1074E+06              0.     1.67063E+06
              11     366.264E+03    -37.3748E+03     364.352E+03              0.     37.3748E-33    -364.352E-33     2.26959E-06    -113.283E-06    -113.283E-06              0.     2.26959E-06    -113.283E-06              0.    -113.283E-06     284.217E-15    -111.014E-06              0.     32.0691E-06     22.1029E+06    -6.97042E+06    -24.7478E+06    -24.7478E+06              0.              0.    -24.7478E+06    -6.97042E+06    -24.7478E+06     24.7478E+06     10.5727E+06    -19.3884E+06    -7.31959E+06    -24.3986E+06              0.     2.46686E+06
              12     375.459E+03    -52.1268E+03     371.822E+03              0.     52.1268E-33    -371.822E-33     4.25199E-06    -118.365E-06    -118.365E-06              0.     4.25199E-06    -118.365E-06              0.    -118.365E-06              0.    -114.113E-06              0.     44.8681E-06     23.0790E+06    -6.86976E+06    -25.7339E+06    -25.7339E+06              0.              0.    -25.7339E+06    -6.86976E+06    -25.7339E+06     25.7339E+06     10.8679E+06    -20.5830E+06    -7.52391E+06    -25.0797E+06              0.     3.45139E+06
              13     408.581E+03    -64.6852E+03     403.428E+03              0.     64.6852E-33    -403.428E-33     7.85167E-06    -128.783E-06    -128.783E-06              0.     7.85167E-06    -128.783E-06              0.    -128.783E-06    -454.747E-15    -120.932E-06              0.     63.5977E-06     25.0971E+06    -6.76557E+06    -27.7864E+06    -27.7864E+06              0.              0.    -27.7864E+06    -6.76557E+06    -27.7864E+06     27.7864E+06     11.5173E+06    -22.9069E+06    -7.97352E+06    -26.5784E+06              0.     4.89213E+06
              14     294.796E+03    -90.1966E+03     280.659E+03              0.     90.1966E-33    -280.659E-33     14.8812E-06    -176.292E-06    -176.292E-06              0.     14.8812E-06    -176.292E-06              0.    -176.292E-06    -909.495E-15    -161.411E-06              0.     102.439E-06     34.3579E+06    -8.35305E+06    -37.7643E+06    -37.7643E+06              0.              0.    -37.7643E+06    -8.35305E+06    -37.7643E+06     37.7643E+06     15.3724E+06    -31.9513E+06    -10.6425E+06    -35.4749E+06              0.     7.87991E+06
              15        No Value        No Value        No Value        No Value        No Value        No Value     42.5721E-06    -166.301E-06    -166.301E-06              0.     42.5721E-06    -166.301E-06              0.    -166.301E-06     37.6817E-06    -161.411E-06              0.    -63.1683E-06     32.9680E+06    -1.60840E+06    -33.7427E+06    -33.7427E+06              0.              0.    -33.7427E+06    -1.60840E+06    -33.7427E+06     33.7427E+06     11.7837E+06    -32.8795E+06    -2.36077E+06    -32.9903E+06              0.    -4.85910E+06
              16        No Value        No Value        No Value        No Value        No Value        No Value     31.1945E-06    -124.200E-06    -124.200E-06              0.     31.1945E-06    -124.200E-06              0.    -124.200E-06     27.9261E-06    -120.932E-06              0.    -40.6546E-06     24.6486E+06    -1.33310E+06    -25.2400E+06    -25.2400E+06              0.     225.418E+03    -25.2400E+06    -1.55851E+06    -25.2400E+06     25.4654E+06     8.85769E+06    -24.4209E+06    -1.83592E+06    -24.7371E+06              0.    -3.12728E+06
              17        No Value        No Value        No Value        No Value        No Value        No Value     18.3349E-06    -117.154E-06    -117.154E-06              0.     18.3349E-06    -117.154E-06              0.    -117.154E-06     15.2937E-06    -114.113E-06              0.    -40.0570E-06     22.9219E+06    -3.69478E+06    -24.5392E+06    -24.5392E+06              0.              0.    -24.5392E+06    -3.69478E+06    -24.5392E+06     24.5392E+06     9.41133E+06    -22.2183E+06    -4.16266E+06    -24.0713E+06              0.    -3.08131E+06
              18        No Value        No Value        No Value        No Value        No Value        No Value     13.0364E-06    -112.821E-06    -112.821E-06              0.     13.0364E-06    -112.821E-06              0.    -112.821E-06     11.2294E-06    -111.014E-06              0.    -29.9233E-06     22.0098E+06    -4.57358E+06    -23.9362E+06    -23.9362E+06              0.              0.    -23.9362E+06    -4.57358E+06    -23.9362E+06     23.9362E+06     9.50327E+06    -20.8965E+06    -4.85158E+06    -23.6582E+06              0.    -2.30179E+06
              19        No Value        No Value        No Value        No Value        No Value        No Value     10.3315E-06    -110.587E-06    -110.587E-06              0.     10.3315E-06    -110.587E-06              0.    -110.587E-06     9.43305E-06    -109.689E-06              0.    -20.7639E-06     21.5567E+06    -5.02082E+06    -23.6237E+06    -23.6237E+06              0.              0.    -23.6237E+06    -5.02082E+06    -23.6237E+06     23.6237E+06     9.54817E+06    -20.1761E+06    -5.15904E+06    -23.4855E+06              0.    -1.59722E+06
              20        No Value        No Value        No Value        No Value        No Value        No Value     8.83943E-06    -109.361E-06    -109.361E-06              0.     8.83943E-06    -109.361E-06              0.    -109.361E-06     8.52455E-06    -109.046E-06              0.    -12.1833E-06     21.3128E+06     -5.2679E+06    -23.4526E+06    -23.4526E+06              0.              0.    -23.4526E+06     -5.2679E+06    -23.4526E+06     23.4526E+06     9.57351E+06    -19.7665E+06    -5.31634E+06    -23.4042E+06              0.    -937.179E+03
              21        No Value        No Value        No Value        No Value        No Value        No Value     8.16780E-06    -108.818E-06    -108.818E-06              0.     8.16780E-06    -108.818E-06              0.    -108.818E-06     8.13326E-06    -108.783E-06              0.    -4.01698E-06     21.2058E+06    -5.37969E+06    -23.3775E+06    -23.3775E+06              0.              0.    -23.3775E+06    -5.37969E+06    -23.3775E+06     23.3775E+06     9.58573E+06    -19.5802E+06    -5.38501E+06    -23.3722E+06              0.    -308.998E+03
              22        No Value        No Value        No Value        No Value        No Value        No Value     8.16780E-06    -108.818E-06    -108.818E-06              0.     8.16780E-06    -108.818E-06              0.    -108.818E-06     8.13326E-06    -108.783E-06              0.     4.01698E-06     21.2058E+06    -5.37969E+06    -23.3775E+06    -23.3775E+06              0.              0.    -23.3775E+06    -5.37969E+06    -23.3775E+06     23.3775E+06     9.58573E+06    -19.5802E+06    -5.38501E+06    -23.3722E+06              0.     308.998E+03
              23        No Value        No Value        No Value        No Value        No Value        No Value     8.83943E-06    -109.361E-06    -109.361E-06              0.     8.83943E-06    -109.361E-06              0.    -109.361E-06     8.52455E-06    -109.046E-06              0.     12.1833E-06     21.3128E+06     -5.2679E+06    -23.4526E+06    -23.4526E+06              0.              0.    -23.4526E+06     -5.2679E+06    -23.4526E+06     23.4526E+06     9.57351E+06    -19.7665E+06    -5.31634E+06    -23.4042E+06              0.     937.179E+03
              24        No Value        No Value        No Value        No Value        No Value        No Value     10.3315E-06    -110.587E-06    -110.587E-06              0.     10.3315E-06    -110.587E-06              0.    -110.587E-06     9.43305E-06    -109.689E-06              0.     20.7639E-06     21.5567E+06    -5.02082E+06    -23.6237E+06    -23.6237E+06              0.              0.    -23.6237E+06    -5.02082E+06    -23.6237E+06     23.6237E+06     9.54817E+06    -20.1761E+06    -5.15904E+06    -23.4855E+06              0.     1.59722E+06
              25        No Value        No Value        No Value        No Value        No Value        No Value     13.0364E-06    -112.821E-06    -112.821E-06              0.     13.0364E-06    -112.821E-06              0.    -112.821E-06     11.2294E-06    -111.014E-06              0.     29.9233E-06     22.0098E+06    -4.57358E+06    -23.9362E+06    -23.9362E+06              0.              0.    -23.9362E+06    -4.57358E+06    -23.9362E+06     23.9362E+06     9.50327E+06    -20.8965E+06    -4.85158E+06    -23.6582E+06              0.     2.30179E+06
              26        No Value        No Value        No Value        No Value        No Value        No Value     18.3349E-06    -117.154E-06    -117.154E-06              0.     18.3349E-06    -117.154E-06              0.    -117.154E-06     15.2937E-06    -114.113E-06              0.     40.0570E-06     22.9219E+06    -3.69478E+06    -24.5392E+06    -24.5392E+06              0.              0.    -24.5392E+06    -3.69478E+06    -24.5392E+06     24.5392E+06     9.41133E+06    -22.2183E+06    -4.16266E+06    -24.0713E+06              0.     3.08131E+06
              27        No Value        No Value        No Value        No Value        No Value        No Value     31.1945E-06    -124.200E-06    -124.200E-06              0.     31.1945E-06    -124.200E-06              0.    -124.200E-06     27.9261E-06    -120.932E-06              0.     40.6546E-06     24.6486E+06    -1.33310E+06    -25.2400E+06    -25.2400E+06              0.     225.418E+03    -25.2400E+06    -1.55851E+06    -25.2400E+06     25.4654E+06     8.85769E+06    -24.4209E+06    -1.83592E+06    -24.7371E+06              0.     3.12728E+06
              28        No Value        No Value        No Value        No Value        No Value        No Value     42.5721E-06    -166.301E-06    -166.301E-06              0.     42.5721E-06    -166.301E-06              0.    -166.301E-06     37.6817E-06    -161.411E-06              0.     63.1683E-06     32.9680E+06    -1.60840E+06    -33.7427E+06    -33.7427E+06              0.              0.    -33.7427E+06    -1.60840E+06    -33.7427E+06     33.7427E+06     11.7837E+06    -32.8795E+06    -2.36077E+06    -32.9903E+06              0.     4.85910E+06
             925        No Value        No Value        No Value        No Value        No Value        No Value     37.5000E-06    -125.000E-06    -125.000E-06              0.     37.5000E-06    -125.000E-06              0.    -125.000E-06     37.5000E-06    -125.000E-06              0.    -5.85062E-15         25.E+06              0.        -25.E+06        -25.E+06              0.              0.        -25.E+06              0.        -25.E+06         25.E+06     8.33333E+06        -25.E+06    -614.098E-06        -25.E+06              0.    -450.048E-06
             926        No Value        No Value        No Value        No Value        No Value        No Value     37.5000E-06    -125.000E-06    -125.000E-06              0.     37.5000E-06    -125.000E-06              0.    -125.000E-06     37.5000E-06    -125.000E-06              0.    -16.8071E-15         25.E+06              0.        -25.E+06        -25.E+06              0.              0.        -25.E+06              0.        -25.E+06         25.E+06     8.33333E+06        -25.E+06    -2.01245E-03        -25.E+06              0.    -1.29285E-03
             927        No Value        No Value        No Value        No Value        No Value        No Value     37.5000E-06    -125.000E-06    -125.000E-06              0.     37.5000E-06    -125.000E-06              0.    -125.000E-06     37.5000E-06    -125.000E-06              0.    -31.6384E-15         25.E+06              0.        -25.E+06        -25.E+06              0.              0.        -25.E+06              0.        -25.E+06         25.E+06     8.33333E+06        -25.E+06    -4.80649E-03        -25.E+06              0.    -2.43372E-03
             928        No Value        No Value        No Value        No Value        No Value        No Value     37.5000E-06    -125.000E-06    -125.000E-06              0.     37.5000E-06    -125.000E-06              0.    -125.000E-06     37.5000E-06    -125.000E-06              0.    -35.8922E-15         25.E+06              0.        -25.E+06        -25.E+06              0.              0.        -25.E+06              0.        -25.E+06         25.E+06     8.33333E+06        -25.E+06    -8.16353E-03        -25.E+06              0.    -2.76094E-03
             929        No Value        No Value        No Value        No Value        No Value        No Value     37.5000E-06    -125.000E-06    -125.000E-06              0.     37.5000E-06    -125.000E-06              0.    -125.000E-06     37.5000E-06    -125.000E-06              0.    -31.3774E-15         25.E+06              0.        -25.E+06        -25.E+06              0.              0.        -25.E+06              0.        -25.E+06         25.E+06     8.33333E+06        -25.E+06    -11.3479E-03        -25.E+06              0.    -2.41365E-03
             930        No Value        No Value        No Value        No Value        No Value        No Value     37.5000E-06    -125.000E-06    -125.000E-06              0.     37.5000E-06    -125.000E-06              0.    -125.000E-06     37.5000E-06    -125.000E-06              0.    -20.9695E-15         25.E+06              0.        -25.E+06        -25.E+06              0.              0.        -25.E+06              0.        -25.E+06         25.E+06     8.33333E+06        -25.E+06    -13.8068E-03        -25.E+06              0.    -1.61304E-03
             931        No Value        No Value        No Value        No Value        No Value        No Value     37.5000E-06    -125.000E-06    -125.000E-06              0.     37.5000E-06    -125.000E-06              0.    -125.000E-06     37.5000E-06    -125.000E-06              0.    -7.32784E-15         25.E+06              0.        -25.E+06        -25.E+06              0.              0.        -25.E+06              0.        -25.E+06         25.E+06     8.33333E+06        -25.E+06    -15.1378E-03        -25.E+06              0.    -563.679E-06
             932        No Value        No Value        No Value        No Value        No Value        No Value     37.5000E-06    -125.000E-06    -125.000E-06              0.     37.5000E-06    -125.000E-06              0.    -125.000E-06     37.5000E-06    -125.000E-06              0.     7.32967E-15         25.E+06              0.        -25.E+06        -25.E+06              0.              0.        -25.E+06              0.        -25.E+06         25.E+06     8.33333E+06        -25.E+06    -15.1377E-03        -25.E+06              0.     563.821E-06
             933        No Value        No Value        No Value        No Value        No Value        No Value     37.5000E-06    -125.000E-06    -125.000E-06              0.     37.5000E-06    -125.000E-06              0.    -125.000E-06     37.5000E-06    -125.000E-06              0.     20.9710E-15         25.E+06              0.        -25.E+06        -25.E+06              0.              0.        -25.E+06              0.        -25.E+06         25.E+06     8.33333E+06        -25.E+06    -13.8066E-03        -25.E+06              0.     1.61315E-03
             934        No Value        No Value        No Value        No Value        No Value        No Value     37.5000E-06    -125.000E-06    -125.000E-06              0.     37.5000E-06    -125.000E-06              0.    -125.000E-06     37.5000E-06    -125.000E-06              0.     31.3741E-15         25.E+06              0.        -25.E+06        -25.E+06              0.              0.        -25.E+06              0.        -25.E+06         25.E+06     8.33333E+06        -25.E+06    -11.3478E-03        -25.E+06              0.     2.41340E-03
             935        No Value        No Value        No Value        No Value        No Value        No Value     37.5000E-06    -125.000E-06    -125.000E-06              0.     37.5000E-06    -125.000E-06              0.    -125.000E-06     37.5000E-06    -125.000E-06              0.     35.8875E-15         25.E+06              0.        -25.E+06        -25.E+06              0.              0.        -25.E+06              0.        -25.E+06         25.E+06     8.33333E+06        -25.E+06    -8.16358E-03        -25.E+06              0.     2.76058E-03
             936        No Value        No Value        No Value        No Value        No Value        No Value     37.5000E-06    -125.000E-06    -125.000E-06              0.     37.5000E-06    -125.000E-06              0.    -125.000E-06     37.5000E-06    -125.000E-06              0.     31.6380E-15         25.E+06              0.        -25.E+06        -25.E+06              0.              0.        -25.E+06              0.        -25.E+06         25.E+06     8.33333E+06        -25.E+06    -4.80639E-03        -25.E+06              0.     2.43369E-03
             937        No Value        No Value        No Value        No Value        No Value        No Value     37.5000E-06    -125.000E-06    -125.000E-06              0.     37.5000E-06    -125.000E-06              0.    -125.000E-06     37.5000E-06    -125.000E-06              0.     16.8090E-15         25.E+06              0.        -25.E+06        -25.E+06              0.              0.        -25.E+06              0.        -25.E+06         25.E+06     8.33333E+06        -25.E+06    -2.01214E-03        -25.E+06              0.     1.29300E-03
             938        No Value        No Value        No Value        No Value        No Value        No Value     37.5000E-06    -125.000E-06    -125.000E-06              0.     37.5000E-06    -125.000E-06              0.    -125.000E-06     37.5000E-06    -125.000E-06              0.     5.85636E-15         25.E+06              0.        -25.E+06        -25.E+06              0.              0.        -25.E+06              0.        -25.E+06         25.E+06     8.33333E+06        -25.E+06    -614.344E-06        -25.E+06              0.     450.490E-06
             939              0.              0.              0.     124.734E-06    -3.75000E-06    -124.678E-06     37.5000E-06    -125.000E-06    -125.000E-06              0.     37.5000E-06    -125.000E-06              0.    -125.000E-06     37.5000E-06    -125.000E-06              0.    -6.72900E-15         25.E+06              0.        -25.E+06        -25.E+06              0.              0.        -25.E+06              0.        -25.E+06         25.E+06     8.33333E+06        -25.E+06    -346.496E-06        -25.E+06              0.    -517.615E-06
             940              0.              0.              0.     124.718E-06    -3.17308E-06    -124.678E-06     37.5000E-06    -125.000E-06    -125.000E-06              0.     37.5000E-06    -125.000E-06              0.    -125.000E-06     37.5000E-06    -125.000E-06              0.    -13.6321E-15         25.E+06              0.        -25.E+06        -25.E+06              0.              0.        -25.E+06              0.        -25.E+06         25.E+06     8.33333E+06        -25.E+06    -1.70100E-03        -25.E+06              0.    -1.04862E-03
             941              0.              0.              0.     124.705E-06    -2.59615E-06    -124.678E-06     37.5000E-06    -125.000E-06    -125.000E-06              0.     37.5000E-06    -125.000E-06              0.    -125.000E-06     37.5000E-06    -125.000E-06              0.    -23.5567E-15         25.E+06              0.        -25.E+06        -25.E+06              0.              0.        -25.E+06              0.        -25.E+06         25.E+06     8.33333E+06        -25.E+06    -5.40253E-03        -25.E+06              0.    -1.81206E-03
             942              0.              0.              0.     124.694E-06    -2.01923E-06    -124.678E-06     37.5000E-06    -125.000E-06    -125.000E-06              0.     37.5000E-06    -125.000E-06              0.    -125.000E-06     37.5000E-06    -125.000E-06              0.    -27.3009E-15         25.E+06              0.        -25.E+06        -25.E+06              0.              0.        -25.E+06              0.        -25.E+06         25.E+06     8.33333E+06        -25.E+06    -11.1468E-03        -25.E+06              0.    -2.10007E-03
             943              0.              0.              0.     124.686E-06    -1.44231E-06    -124.678E-06     37.5000E-06    -125.000E-06    -125.000E-06              0.     37.5000E-06    -125.000E-06              0.    -125.000E-06     37.5000E-06    -125.000E-06              0.    -24.1838E-15         25.E+06              0.        -25.E+06        -25.E+06              0.              0.        -25.E+06              0.        -25.E+06         25.E+06     8.33333E+06        -25.E+06    -17.0941E-03        -25.E+06              0.    -1.86029E-03
             944              0.              0.              0.     124.681E-06    -865.385E-09    -124.678E-06     37.5000E-06    -125.000E-06    -125.000E-06              0.     37.5000E-06    -125.000E-06              0.    -125.000E-06     37.5000E-06    -125.000E-06              0.    -16.2748E-15         25.E+06              0.        -25.E+06        -25.E+06              0.              0.        -25.E+06              0.        -25.E+06         25.E+06     8.33333E+06        -25.E+06    -21.7764E-03        -25.E+06              0.    -1.25191E-03
             945              0.              0.              0.     124.678E-06    -288.462E-09    -124.678E-06     37.5000E-06    -125.000E-06    -125.000E-06              0.     37.5000E-06    -125.000E-06              0.    -125.000E-06     37.5000E-06    -125.000E-06              0.    -5.70839E-15         25.E+06              0.        -25.E+06        -25.E+06              0.              0.        -25.E+06              0.        -25.E+06         25.E+06     8.33333E+06        -25.E+06    -24.3168E-03        -25.E+06              0.    -439.107E-06
             946              0.              0.              0.     124.678E-06     288.462E-09    -124.678E-06     37.5000E-06    -125.000E-06    -125.000E-06              0.     37.5000E-06    -125.000E-06              0.    -125.000E-06     37.5000E-06    -125.000E-06              0.     5.70770E-15         25.E+06              0.        -25.E+06        -25.E+06              0.              0.        -25.E+06              0.        -25.E+06         25.E+06     8.33333E+06        -25.E+06    -24.3166E-03        -25.E+06              0.     439.054E-06
             947              0.              0.              0.     124.681E-06     865.385E-09    -124.678E-06     37.5000E-06    -125.000E-06    -125.000E-06              0.     37.5000E-06    -125.000E-06              0.    -125.000E-06     37.5000E-06    -125.000E-06              0.     16.2769E-15         25.E+06              0.        -25.E+06        -25.E+06              0.              0.        -25.E+06              0.        -25.E+06         25.E+06     8.33333E+06        -25.E+06    -21.7760E-03        -25.E+06              0.     1.25207E-03
             948              0.              0.              0.     124.686E-06     1.44231E-06    -124.678E-06     37.5000E-06    -125.000E-06    -125.000E-06              0.     37.5000E-06    -125.000E-06              0.    -125.000E-06     37.5000E-06    -125.000E-06              0.     24.1799E-15         25.E+06              0.        -25.E+06        -25.E+06              0.              0.        -25.E+06              0.        -25.E+06         25.E+06     8.33333E+06        -25.E+06    -17.0935E-03        -25.E+06              0.     1.86000E-03
             949              0.              0.              0.     124.694E-06     2.01923E-06    -124.678E-06     37.5000E-06    -125.000E-06    -125.000E-06              0.     37.5000E-06    -125.000E-06              0.    -125.000E-06     37.5000E-06    -125.000E-06              0.     27.2963E-15         25.E+06              0.        -25.E+06        -25.E+06              0.              0.        -25.E+06              0.        -25.E+06         25.E+06     8.33333E+06        -25.E+06    -11.1466E-03        -25.E+06              0.     2.09972E-03
             950              0.              0.              0.     124.705E-06     2.59615E-06    -124.678E-06     37.5000E-06    -125.000E-06    -125.000E-06              0.     37.5000E-06    -125.000E-06              0.    -125.000E-06     37.5000E-06    -125.000E-06              0.     23.5578E-15         25.E+06              0.        -25.E+06        -25.E+06              0.              0.        -25.E+06              0.        -25.E+06         25.E+06     8.33333E+06        -25.E+06    -5.40288E-03        -25.E+06              0.     1.81214E-03
             951              0.              0.              0.     124.718E-06     3.17308E-06    -124.678E-06     37.5000E-06    -125.000E-06    -125.000E-06              0.     37.5000E-06    -125.000E-06              0.    -125.000E-06     37.5000E-06    -125.000E-06              0.     13.6334E-15         25.E+06              0.        -25.E+06        -25.E+06              0.              0.        -25.E+06              0.        -25.E+06         25.E+06     8.33333E+06        -25.E+06    -1.70101E-03        -25.E+06              0.     1.04872E-03
             952              0.              0.              0.     124.734E-06     3.75000E-06    -124.678E-06     37.5000E-06    -125.000E-06    -125.000E-06              0.     37.5000E-06    -125.000E-06              0.    -125.000E-06     37.5000E-06    -125.000E-06              0.     6.72856E-15         25.E+06              0.        -25.E+06        -25.E+06              0.              0.        -25.E+06              0.        -25.E+06         25.E+06     8.33333E+06        -25.E+06    -346.522E-06        -25.E+06              0.     517.581E-06


  Minimum                     0.    -90.1966E+03              0.              0.    -3.75000E-06    -124.678E-06     39.4608E-09    -176.292E-06    -176.292E-06              0.     39.4608E-09    -176.292E-06              0.    -176.292E-06    -909.495E-15    -161.411E-06              0.    -102.439E-06     21.2058E+06    -8.35305E+06    -37.7643E+06    -37.7643E+06              0.              0.    -37.7643E+06    -8.35305E+06    -37.7643E+06     23.3775E+06     8.33333E+06    -32.8795E+06    -10.6425E+06    -35.4749E+06              0.    -7.87991E+06
         At Node             952              14             952              14             939             952               7              14              14             952               7              14             952              14              14              28             952               1              22              14              14              14             952             952              14              14              14              22             952              28              14              14             952               1

  Maximum            408.581E+03     90.1966E+03     403.428E+03     124.734E-06     3.75000E-06    -280.659E-33     42.5721E-06    -108.818E-06    -108.818E-06              0.     42.5721E-06    -108.818E-06              0.    -108.818E-06     37.6817E-06    -108.783E-06              0.     102.439E-06     34.3579E+06              0.    -23.3775E+06    -23.3775E+06              0.     225.418E+03    -23.3775E+06              0.    -23.3775E+06     37.7643E+06     15.3724E+06    -18.2263E+06    -346.496E-06    -23.3722E+06              0.     7.87991E+06
         At Node              13               1              13             952             952              14              28              22              22             952              28              22             952              22              28              22             952              14              14             952              22              22             952              27              22             952              22              14              14               8             939              22             952              14

           Total     5.05217E+06    -3.90625E-03     5.00000E+06     1.74579E-03     369.482E-15    -1.74549E-03     1.37640E-03    -6.92991E-03    -6.92991E-03              0.     1.37640E-03    -6.92991E-03              0.    -6.92991E-03     1.28644E-03    -6.83995E-03              0.     18.1899E-12     1.37101E+09    -154.412E+06    -1.43230E+09    -1.43230E+09              0.     450.836E+03    -1.43230E+09    -154.862E+06    -1.43230E+09     1.43276E+09     528.905E+06    -1.32025E+09    -168.251E+06    -1.41847E+09              0.     250.000E-03


