********************************************************************************
Field Output Report, written Sat Jun 23 00:29:30 2018

Source 1
---------

   ODB: C:/Users/lucas_omena/Dropbox/Mestrado/Disciplinas/MEF/Novos Exemplos/Q4_105.odb
   Step: Step_Load
   Frame: Increment      1: Step Time =    1.000

Loc 1 : Nodal values from source 1

Output sorted by column "Node Label".

Field Output reported at nodes for part: PART_GEOMETRY-1
   Computation algorithm: EXTRAPOLATE_COMPUTE_AVERAGE
   Averaged at nodes
   Averaging regions: ODB_REGIONS

      Node Label    RF.Magnitude          RF.RF1          RF.RF2     U.Magnitude            U.U1            U.U2     E.Max. In-P  E.Max. In-P(a)     E.Min. In-P     E.Out-of-Pl     E.Max. Prin  E.Max. Prin(a)     E.Mid. Prin     E.Min. Prin           E.E11           E.E22           E.E33           E.E12         S.Mises     S.Max. In-P  S.Max. In-P(a)     S.Min. In-P     S.Out-of-Pl     S.Max. Prin  S.Max. Prin(a)     S.Mid. Prin     S.Min. Prin        S.Tresca      S.Pressure     S.Third Inv           S.S11           S.S22           S.S33           S.S12
                          @Loc 1          @Loc 1          @Loc 1          @Loc 1          @Loc 1          @Loc 1          @Loc 1          @Loc 1          @Loc 1          @Loc 1          @Loc 1          @Loc 1          @Loc 1          @Loc 1          @Loc 1          @Loc 1          @Loc 1          @Loc 1          @Loc 1          @Loc 1          @Loc 1          @Loc 1          @Loc 1          @Loc 1          @Loc 1          @Loc 1          @Loc 1          @Loc 1          @Loc 1          @Loc 1          @Loc 1          @Loc 1          @Loc 1          @Loc 1
---------------------------------------------------------------------------------------------------------------------------------------------------------------------------------------------------------------------------------------------------------------------------------------------------------------------------------------------------------------------------------------------------------------------------------------------------------------------------------------------------------------------------------------------------------------------------------
               1     1.37064E+06     335.478E+03     1.32895E+06              0.    -335.478E-33    -1.32895E-30     2.94795E-06    -126.698E-06    -126.698E-06              0.     2.94795E-06    -126.698E-06              0.    -126.698E-06     454.747E-15    -123.750E-06              0.    -38.6522E-06     24.7163E+06    -7.70578E+06    -27.6512E+06    -27.6512E+06              0.              0.    -27.6512E+06    -7.70578E+06    -27.6512E+06     27.6512E+06     11.7857E+06    -21.7569E+06    -8.15931E+06    -27.1977E+06              0.    -2.97325E+06
               2     2.34210E+06     524.762E-06     2.34210E+06              0.    -524.762E-42    -2.34210E-30              0.    -115.346E-06    -115.346E-06              0.              0.    -115.346E-06              0.    -115.346E-06     682.121E-15    -115.346E-06              0.              0.     22.5323E+06    -7.60524E+06    -25.3508E+06    -25.3508E+06              0.              0.    -25.3508E+06    -7.60524E+06    -25.3508E+06     25.3508E+06     10.9853E+06    -19.3107E+06    -7.60524E+06    -25.3508E+06              0.    -27.3438E-03
               3     1.37064E+06    -335.478E+03     1.32895E+06              0.     335.478E-33    -1.32895E-30     2.94795E-06    -126.698E-06    -126.698E-06              0.     2.94795E-06    -126.698E-06              0.    -126.698E-06     909.495E-15    -123.750E-06              0.     38.6522E-06     24.7163E+06    -7.70578E+06    -27.6512E+06    -27.6512E+06              0.              0.    -27.6512E+06    -7.70578E+06    -27.6512E+06     27.6512E+06     11.7857E+06    -21.7569E+06    -8.15931E+06    -27.1977E+06              0.     2.97325E+06
               4        No Value        No Value        No Value        No Value        No Value        No Value     40.0487E-06    -125.146E-06    -125.146E-06              0.     40.0487E-06    -125.146E-06              0.    -125.146E-06     38.6522E-06    -123.750E-06              0.    -30.2488E-06     25.1438E+06     550.531E+03    -24.8641E+06    -24.8641E+06              0.     550.531E+03    -24.8641E+06              0.    -24.8641E+06     25.4146E+06     8.10451E+06    -25.1303E+06     335.683E+03    -24.6492E+06              0.    -2.32683E+06
               5        No Value        No Value        No Value        No Value        No Value        No Value     38.7668E-06    -115.461E-06    -115.461E-06              0.     38.7668E-06    -115.461E-06              0.    -115.461E-06     38.6522E-06    -115.346E-06              0.    -454.747E-15     23.2869E+06     907.378E+03    -22.8199E+06    -22.8199E+06              0.     907.378E+03    -22.8199E+06              0.    -22.8199E+06     23.7273E+06     7.30418E+06    -23.2470E+06     889.753E+03    -22.8023E+06              0.              0.
               6        No Value        No Value        No Value        No Value        No Value        No Value     40.0487E-06    -125.146E-06    -125.146E-06              0.     40.0487E-06    -125.146E-06              0.    -125.146E-06     38.6522E-06    -123.750E-06              0.     30.2488E-06     25.1438E+06     550.531E+03    -24.8641E+06    -24.8641E+06              0.     550.531E+03    -24.8641E+06              0.    -24.8641E+06     25.4146E+06     8.10451E+06    -25.1303E+06     335.683E+03    -24.6492E+06              0.     2.32683E+06
              28        No Value        No Value        No Value        No Value        No Value        No Value     37.5000E-06    -125.000E-06    -125.000E-06              0.     37.5000E-06    -125.000E-06              0.    -125.000E-06     37.5000E-06    -125.000E-06              0.    -99.8181E-15         25.E+06              0.        -25.E+06        -25.E+06              0.              0.        -25.E+06              0.        -25.E+06         25.E+06     8.33333E+06        -25.E+06    -156.923E-03        -25.E+06              0.    -7.67832E-03
              29        No Value        No Value        No Value        No Value        No Value        No Value     37.5000E-06    -125.000E-06    -125.000E-06              0.     37.5000E-06    -125.000E-06              0.    -125.000E-06     37.5000E-06    -125.000E-06              0.    -216.840E-21         25.E+06              0.        -25.E+06        -25.E+06              0.              0.        -25.E+06              0.        -25.E+06         25.E+06     8.33333E+06        -25.E+06    -186.197E-03        -25.E+06              0.    -14.9012E-09
              30        No Value        No Value        No Value        No Value        No Value        No Value     37.5000E-06    -125.000E-06    -125.000E-06              0.     37.5000E-06    -125.000E-06              0.    -125.000E-06     37.5000E-06    -125.000E-06              0.     99.8183E-15         25.E+06              0.        -25.E+06        -25.E+06              0.              0.        -25.E+06              0.        -25.E+06         25.E+06     8.33333E+06        -25.E+06    -156.923E-03        -25.E+06              0.     7.67833E-03
              31              0.              0.              0.     124.553E-06    -3.75000E-06    -124.497E-06     37.5000E-06    -125.000E-06    -125.000E-06              0.     37.5000E-06    -125.000E-06              0.    -125.000E-06     37.5000E-06    -125.000E-06              0.    -543.811E-15         25.E+06              0.        -25.E+06        -25.E+06              0.              0.        -25.E+06              0.        -25.E+06         25.E+06     8.33333E+06        -25.E+06     109.995E-03        -25.E+06              0.    -41.8316E-03
              32              0.              0.              0.     124.497E-06    -25.6140E-15    -124.497E-06     37.5000E-06    -125.000E-06    -125.000E-06              0.     37.5000E-06    -125.000E-06              0.    -125.000E-06     37.5000E-06    -125.000E-06              0.     216.840E-21         25.E+06              0.        -25.E+06        -25.E+06              0.              0.        -25.E+06              0.        -25.E+06         25.E+06     8.33333E+06        -25.E+06     80.7210E-03        -25.E+06              0.     11.1759E-09
              33              0.              0.              0.     124.553E-06     3.75000E-06    -124.497E-06     37.5000E-06    -125.000E-06    -125.000E-06              0.     37.5000E-06    -125.000E-06              0.    -125.000E-06     37.5000E-06    -125.000E-06              0.     543.811E-15         25.E+06              0.        -25.E+06        -25.E+06              0.              0.        -25.E+06              0.        -25.E+06         25.E+06     8.33333E+06        -25.E+06     109.995E-03        -25.E+06              0.     41.8316E-03


  Minimum                     0.    -335.478E+03              0.              0.    -3.75000E-06    -124.497E-06              0.    -126.698E-06    -126.698E-06              0.              0.    -126.698E-06              0.    -126.698E-06     454.747E-15    -125.000E-06              0.    -38.6522E-06     22.5323E+06    -7.70578E+06    -27.6512E+06    -27.6512E+06              0.              0.    -27.6512E+06    -7.70578E+06    -27.6512E+06     23.7273E+06     7.30418E+06    -25.1303E+06    -8.15931E+06    -27.1977E+06              0.    -2.97325E+06
         At Node              33               3              33               3              31              33               2               3               3              33               2               3              33               3               1              30              33               1               2               3               3               3              33              33               3               3               3               5               5               6               3               3              33               1

  Maximum            2.34210E+06     335.478E+03     2.34210E+06     124.553E-06     3.75000E-06    -1.32895E-30     40.0487E-06    -115.346E-06    -115.346E-06              0.     40.0487E-06    -115.346E-06              0.    -115.346E-06     38.6522E-06    -115.346E-06              0.     38.6522E-06     25.1438E+06     907.378E+03    -22.8199E+06    -22.8199E+06              0.     907.378E+03    -22.8199E+06              0.    -22.8199E+06     27.6512E+06     11.7857E+06    -19.3107E+06     889.753E+03    -22.8023E+06              0.     2.97325E+06
         At Node               2               1               2              33              33               3               6               2               2              33               6               2              33               2               6               5              33               3               6               5               5               5              33               5               5              33               5               3               3               2               5               5              33               3

           Total     5.08338E+06     524.762E-06     5.00000E+06     373.603E-06    -25.6140E-15    -373.490E-06     349.760E-06    -1.48449E-03    -1.48449E-03              0.     349.760E-06    -1.48449E-03              0.    -1.48449E-03     340.957E-06    -1.47569E-03              0.    -7.73070E-12     295.539E+06    -21.0084E+06    -303.201E+06    -303.201E+06              0.     2.00844E+06    -303.201E+06    -23.0168E+06    -303.201E+06     305.210E+06     108.070E+06    -286.332E+06    -22.3627E+06    -301.847E+06              0.     222.656E-03


