********************************************************************************
Field Output Report, written Sat Jun 23 00:31:20 2018

Source 1
---------

   ODB: C:/Users/lucas_omena/Dropbox/Mestrado/Disciplinas/MEF/Novos Exemplos/Q4_120.odb
   Step: Step_Load
   Frame: Increment      1: Step Time =    1.000

Loc 1 : Nodal values from source 1

Output sorted by column "Node Label".

Field Output reported at nodes for part: PART_GEOMETRY-1
   Computation algorithm: EXTRAPOLATE_COMPUTE_AVERAGE
   Averaged at nodes
   Averaging regions: ODB_REGIONS

      Node Label    RF.Magnitude          RF.RF1          RF.RF2     U.Magnitude            U.U1            U.U2     E.Max. In-P  E.Max. In-P(a)     E.Min. In-P     E.Out-of-Pl     E.Max. Prin  E.Max. Prin(a)     E.Mid. Prin     E.Min. Prin           E.E11           E.E22           E.E33           E.E12         S.Mises     S.Max. In-P  S.Max. In-P(a)     S.Min. In-P     S.Out-of-Pl     S.Max. Prin  S.Max. Prin(a)     S.Mid. Prin     S.Min. Prin        S.Tresca      S.Pressure     S.Third Inv           S.S11           S.S22           S.S33           S.S12
                          @Loc 1          @Loc 1          @Loc 1          @Loc 1          @Loc 1          @Loc 1          @Loc 1          @Loc 1          @Loc 1          @Loc 1          @Loc 1          @Loc 1          @Loc 1          @Loc 1          @Loc 1          @Loc 1          @Loc 1          @Loc 1          @Loc 1          @Loc 1          @Loc 1          @Loc 1          @Loc 1          @Loc 1          @Loc 1          @Loc 1          @Loc 1          @Loc 1          @Loc 1          @Loc 1          @Loc 1          @Loc 1          @Loc 1          @Loc 1
---------------------------------------------------------------------------------------------------------------------------------------------------------------------------------------------------------------------------------------------------------------------------------------------------------------------------------------------------------------------------------------------------------------------------------------------------------------------------------------------------------------------------------------------------------------------------------
               1     1.37972E+06     375.585E+03     1.32762E+06              0.    -375.585E-33    -1.32762E-30     2.14052E-06    -125.156E-06    -125.156E-06              0.     2.14052E-06    -125.156E-06              0.    -125,156E-06     1.81899E-12    -123.016E-06              0.    -32.7352E-06     24.4231E+06    -7.78160E+06    -27.3657E+06    -27.3657E+06              0.              0.    -27.3657E+06    -7.78160E+06    -27.3657E+06     27.3657E+06     11.7158E+06    -21.3545E+06    -8.11092E+06    -27.0364E+06              0.    -2.51809E+06
               2     2.34477E+06     457.932E-06     2.34477E+06              0.    -457.932E-42    -2.34477E-30              0.    -116.760E-06    -116.760E-06              0.              0.    -116.760E-06              0.    -116.760E-06     1.81899E-12    -116.760E-06              0.    -383.693E-15     22.8085E+06    -7.69847E+06    -25.6616E+06    -25.6616E+06              0.              0.    -25.6616E+06    -7.69847E+06    -25.6616E+06     25.6616E+06     11.1200E+06    -19.5475E+06    -7.69847E+06    -25.6616E+06              0.    -25.3906E-03
               3     1.37972E+06    -375.585E+03     1.32762E+06              0.     375.585E-33    -1.32762E-30     2.14052E-06    -125.156E-06    -125.156E-06              0.     2.14052E-06    -125.156E-06              0.    -125.156E-06     1.81899E-12    -123.016E-06              0.     32.7352E-06     24.4231E+06    -7.78161E+06    -27.3657E+06    -27.3657E+06              0.              0.    -27.3657E+06    -7.78161E+06    -27.3657E+06     27.3657E+06     11.7158E+06    -21.3545E+06    -8.11092E+06    -27.0364E+06              0.     2.51809E+06
               4        No Value        No Value        No Value        No Value        No Value        No Value     41.8603E-06    -123.957E-06    -123.957E-06              0.     41.8603E-06    -123.957E-06              0.    -123.957E-06     40.9190E-06    -123.016E-06              0.    -24.9160E-06     25.0126E+06     1.02710E+06    -24.4832E+06    -24.4832E+06              0.     1.02710E+06    -24.4832E+06              0.    -24.4832E+06     25.5103E+06     7.81872E+06    -24.9651E+06     882.277E+03    -24.3384E+06              0.    -1.91662E+06
               5        No Value        No Value        No Value        No Value        No Value        No Value     41.0159E-06    -116.857E-06    -116.857E-06              0.     41.0159E-06    -116.857E-06              0.    -116.857E-06     40.9190E-06    -116.760E-06              0.              0.     23.6605E+06     1.30962E+06    -22.9785E+06    -22.9785E+06              0.     1.30962E+06    -22.9785E+06              0.    -22.9785E+06     24.2881E+06     7.22297E+06    -23.5788E+06     1.29472E+06    -22.9636E+06              0.              0.
               6        No Value        No Value        No Value        No Value        No Value        No Value     41.8603E-06    -123.957E-06    -123.957E-06              0.     41.8603E-06    -123.957E-06              0.    -123.957E-06     40.9190E-06    -123.016E-06              0.     24.9160E-06     25.0126E+06     1.02710E+06    -24.4832E+06    -24.4832E+06              0.     1.02710E+06    -24.4832E+06              0.    -24.4832E+06     25.5103E+06     7.81872E+06    -24.9651E+06     882.277E+03    -24.3384E+06              0.     1.91662E+06
              22        No Value        No Value        No Value        No Value        No Value        No Value     37.5000E-06    -125.000E-06    -125.000E-06              0.     37.5000E-06    -125.000E-06              0.    -125.000E-06     37.5000E-06    -125.000E-06              0.     47.6067E-12         25.E+06        -2.00000        -25.E+06        -25.E+06              0.              0.        -25.E+06        -2.00000        -25.E+06         25.E+06     8.33333E+06    -25.0000E+06        -1.14726        -25.E+06              0.         3.66206
              23        No Value        No Value        No Value        No Value        No Value        No Value     37.5000E-06    -125.000E-06    -125.000E-06              0.     37.5000E-06    -125.000E-06              0.    -125.000E-06     37.5000E-06    -125.000E-06              0.              0.     25.0000E+06        -4.00000    -25.0000E+06    -25.0000E+06              0.              0.    -25.0000E+06        -4.00000    -25.0000E+06     25.0000E+06     8.33334E+06    -25.0000E+06        -4.36800    -25.0000E+06              0.              0.
              24        No Value        No Value        No Value        No Value        No Value        No Value     37.5000E-06    -125.000E-06    -125.000E-06              0.     37.5000E-06    -125.000E-06              0.    -125.000E-06     37.5000E-06    -125.000E-06              0.    -47.6067E-12     25.0000E+06        -2.00000    -25.0000E+06    -25.0000E+06              0.              0.    -25.0000E+06        -2.00000    -25.0000E+06     25.0000E+06     8.33333E+06    -25.0000E+06        -1.14726    -25.0000E+06              0.        -3.66206
              25              0.              0.              0.     124.493E-06    -3.75000E-06    -124.437E-06     37.5000E-06    -125.000E-06    -125.000E-06              0.     37.5000E-06    -125.000E-06              0.    -125.000E-06     37.5000E-06    -125.000E-06              0.    -13.4532E-12     25.0000E+06              6.    -25.0000E+06    -25.0000E+06              0.              6.    -25.0000E+06              0.    -25.0000E+06     25.0000E+06     8.33333E+06    -25.0000E+06         5.28603    -25.0000E+06              0.        -1.03486
              26              0.              0.              0.     124.437E-06    -24.7180E-15    -124.437E-06     37.5000E-06    -125.000E-06    -125.000E-06              0.     37.5000E-06    -125.000E-06              0.    -125.000E-06     37.5000E-06    -125.000E-06              0.    -2.16840E-18     25.0000E+06              2.    -25.0000E+06    -25.0000E+06              0.              2.    -25.0000E+06              0.    -25.0000E+06     25.0000E+06     8.33333E+06    -25.0000E+06         2.06529    -25.0000E+06              0.    -119.209E-09
              27              0.              0.              0.     124.493E-06     3.75000E-06    -124.437E-06     37.5000E-06    -125.000E-06    -125.000E-06              0.     37.5000E-06    -125.000E-06              0.    -125.000E-06     37.5000E-06    -125.000E-06              0.     13.4532E-12     25.0000E+06              6.    -25.0000E+06    -25.0000E+06              0.              6.    -25.0000E+06              0.    -25.0000E+06     25.0000E+06     8.33333E+06    -25.0000E+06         5.28603    -25.0000E+06              0.         1.03486


  Minimum                     0.    -375.585E+03              0.              0.    -3.75000E-06    -124.437E-06              0.    -125.156E-06    -125.156E-06              0.              0.    -125.156E-06              0.    -125.156E-06     1.81899E-12    -125.000E-06              0.    -32.7352E-06     22.8085E+06    -7.78161E+06    -27.3657E+06    -27.3657E+06              0.              0.    -27.3657E+06    -7.78161E+06    -27.3657E+06     24.2881E+06     7.22297E+06    -25.0000E+06    -8.11092E+06    -27.0364E+06              0.    -2.51809E+06
         At Node              27               3              27               3              25              27               2               3               3              27               2               3              27               3               3              26              27               1               2               3               3               3              27              24               3               3               3               5               5              23               1               3              27               1

  Maximum            2.34477E+06     375.585E+03     2.34477E+06     124.493E-06     3.75000E-06    -1.32762E-30     41.8603E-06    -116.760E-06    -116.760E-06              0.     41.8603E-06    -116.760E-06              0.    -116.760E-06     40.9190E-06    -116.760E-06              0.     32.7352E-06     25.0126E+06     1.30962E+06    -22.9785E+06    -22.9785E+06              0.     1.30962E+06    -22.9785E+06              0.    -22.9785E+06     27.3657E+06     11.7158E+06    -19.5475E+06     1.29472E+06    -22.9636E+06              0.     2.51809E+06
         At Node               2               1               2              27              27               3               6               2               2              27               6               2              27               2               5               5              27               3               6               5               5               5              27               5               5              27               5               3               3               2               5               5              27               3

           Total     5.10421E+06     457.932E-06          5.E+06     373.423E-06    -24.7180E-15    -373.310E-06     354.018E-06    -1.48184E-03    -1.48184E-03              0.     354.018E-06    -1.48184E-03              0.    -1.48184E-03     347.757E-06    -1.47558E-03              0.    -383.694E-15     295.340E+06    -19.8979E+06    -302.338E+06    -302.338E+06              0.     3.36383E+06    -302.338E+06    -23.2617E+06    -302.338E+06     305.702E+06     107.412E+06    -285.765E+06    -20.8610E+06    -301.375E+06              0.    -25.3906E-03


