********************************************************************************
Field Output Report, written Sat Jun 23 00:15:58 2018

Source 1
---------

   ODB: C:/Users/lucas_omena/Dropbox/Mestrado/Disciplinas/MEF/Novos Exemplos/Q4_30.odb
   Step: Step_Load
   Frame: Increment      1: Step Time =    1.000

Loc 1 : Nodal values from source 1

Output sorted by column "Node Label".

Field Output reported at nodes for part: PART_GEOMETRY-1
   Computation algorithm: EXTRAPOLATE_COMPUTE_AVERAGE
   Averaged at nodes
   Averaging regions: ODB_REGIONS

      Node Label    RF.Magnitude          RF.RF1          RF.RF2     U.Magnitude            U.U1            U.U2     E.Max. In-P  E.Max. In-P(a)     E.Min. In-P     E.Out-of-Pl     E.Max. Prin  E.Max. Prin(a)     E.Mid. Prin     E.Min. Prin           E.E11           E.E22           E.E33           E.E12         S.Mises     S.Max. In-P  S.Max. In-P(a)     S.Min. In-P     S.Out-of-Pl     S.Max. Prin  S.Max. Prin(a)     S.Mid. Prin     S.Min. Prin        S.Tresca      S.Pressure     S.Third Inv           S.S11           S.S22           S.S33           S.S12
                          @Loc 1          @Loc 1          @Loc 1          @Loc 1          @Loc 1          @Loc 1          @Loc 1          @Loc 1          @Loc 1          @Loc 1          @Loc 1          @Loc 1          @Loc 1          @Loc 1          @Loc 1          @Loc 1          @Loc 1          @Loc 1          @Loc 1          @Loc 1          @Loc 1          @Loc 1          @Loc 1          @Loc 1          @Loc 1          @Loc 1          @Loc 1          @Loc 1          @Loc 1          @Loc 1          @Loc 1          @Loc 1          @Loc 1          @Loc 1
---------------------------------------------------------------------------------------------------------------------------------------------------------------------------------------------------------------------------------------------------------------------------------------------------------------------------------------------------------------------------------------------------------------------------------------------------------------------------------------------------------------------------------------------------------------------------------
               1     483.254E+03     145.860E+03     460.716E+03              0.    -145.860E-33    -460.716E-33     9.87979E-06    -151.687E-06    -151.687E-06              0.     9.87979E-06    -151.687E-06              0.    -151.687E-06     909.495E-15    -141.807E-06              0.    -77.4244E-06     29.5597E+06    -7.82996E+06    -32.6864E+06    -32.6864E+06              0.              0.    -32.6864E+06    -7.82996E+06    -32.6864E+06     32.6864E+06     13.5055E+06    -27.0752E+06    -9.34993E+06    -31.1664E+06              0.    -5.95572E+06
               2     707.091E+03     84.8398E+03     701.983E+03              0.    -84.8398E-33    -701.983E-33     3.87323E-06    -119.897E-06    -119.897E-06              0.     3.87323E-06    -119.897E-06              0.    -119.897E-06     341.061E-15    -116.024E-06              0.    -43.0994E-06     23.3808E+06    -7.05404E+06    -26.0956E+06    -26.0956E+06              0.              0.    -26.0956E+06    -7.05404E+06    -26.0956E+06     26.0956E+06     11.0499E+06    -20.7764E+06    -7.64992E+06    -25.4997E+06              0.    -3.31534E+06
               3     672.523E+03     52.0392E+03     670.506E+03              0.    -52.0392E-33    -670.506E-33     1.16242E-06    -113.575E-06    -113.575E-06              0.     1.16242E-06    -113.575E-06              0.    -113.575E-06    -56.8434E-15    -112.413E-06              0.    -22.9802E-06     22.1717E+06    -7.23301E+06    -24.8850E+06    -24.8850E+06              0.              0.    -24.8850E+06    -7.23301E+06    -24.8850E+06     24.8850E+06      10.706E+06    -19.2355E+06    -7.41185E+06    -24.7062E+06              0.    -1.76771E+06
               4     666.993E+03     16.2802E+03     666.794E+03              0.    -16.2802E-33    -666.794E-33     119.951E-09    -111.222E-06    -111.222E-06              0.     119.951E-09    -111.222E-06              0.    -111.222E-06     227.374E-15    -111.102E-06              0.    -7.30513E-06     21.7250E+06    -7.30696E+06    -24.4365E+06    -24.4365E+06              0.              0.    -24.4365E+06    -7.30696E+06    -24.4365E+06     24.4365E+06     10.5812E+06    -18.6436E+06    -7.32541E+06    -24.4180E+06              0.    -561.933E+03
               5     666.993E+03    -16.2802E+03     666.794E+03              0.     16.2802E-33    -666.794E-33     119.951E-09    -111.222E-06    -111.222E-06              0.     119.951E-09    -111.222E-06              0.    -111.222E-06     170.530E-15    -111.102E-06              0.     7.30513E-06     21.7250E+06    -7.30696E+06    -24.4365E+06    -24.4365E+06              0.              0.    -24.4365E+06    -7.30696E+06    -24.4365E+06     24.4365E+06     10.5812E+06    -18.6436E+06    -7.32541E+06    -24.4180E+06              0.     561.933E+03
               6     672.523E+03    -52.0392E+03     670.506E+03              0.     52.0392E-33    -670.506E-33     1.16242E-06    -113.575E-06    -113.575E-06              0.     1.16242E-06    -113.575E-06              0.    -113.575E-06    -113.687E-15    -112.413E-06              0.     22.9802E-06     22.1717E+06    -7.23301E+06    -24.8850E+06    -24.8850E+06              0.              0.    -24.8850E+06    -7.23301E+06    -24.8850E+06     24.8850E+06      10.706E+06    -19.2355E+06    -7.41185E+06    -24.7062E+06              0.     1.76771E+06
               7     707.091E+03    -84.8398E+03     701.983E+03              0.     84.8398E-33    -701.983E-33     3.87324E-06    -119.897E-06    -119.897E-06              0.     3.87324E-06    -119.897E-06              0.    -119.897E-06     454.747E-15    -116.024E-06              0.     43.0994E-06     23.3808E+06    -7.05404E+06    -26.0956E+06    -26.0956E+06              0.              0.    -26.0956E+06    -7.05404E+06    -26.0956E+06     26.0956E+06     11.0499E+06    -20.7764E+06    -7.64992E+06    -25.4997E+06              0.     3.31534E+06
               8     483.254E+03    -145.860E+03     460.716E+03              0.     145.860E-33    -460.716E-33     9.87979E-06    -151.687E-06    -151.687E-06              0.     9.87979E-06    -151.687E-06              0.    -151.687E-06     909.495E-15    -141.807E-06              0.     77.4244E-06     29.5597E+06    -7.82996E+06    -32.6864E+06    -32.6864E+06              0.              0.    -32.6864E+06    -7.82996E+06    -32.6864E+06     32.6864E+06     13.5055E+06    -27.0752E+06    -9.34993E+06    -31.1664E+06              0.     5.95573E+06
               9        No Value        No Value        No Value        No Value        No Value        No Value     39.8565E-06    -145.258E-06    -145.258E-06              0.     39.8565E-06    -145.258E-06              0.    -145.258E-06     36.4053E-06    -141.807E-06              0.    -50.0784E-06     28.8968E+06      -817.8E+03    -29.2970E+06    -29.2970E+06              0.              0.    -29.2970E+06      -817.8E+03    -29.2970E+06     29.2970E+06     10.0383E+06    -28.8708E+06    -1.34876E+06    -28.7661E+06              0.    -3.85218E+06
              10        No Value        No Value        No Value        No Value        No Value        No Value     30.4506E-06    -117.603E-06    -117.603E-06              0.     30.4506E-06    -117.603E-06              0.    -117.603E-06     28.8719E-06    -116.024E-06              0.    -27.5115E-06     23.3614E+06    -1.06156E+06    -23.8390E+06    -23.8390E+06              0.     206.851E+03    -23.8390E+06    -1.26841E+06    -23.8390E+06     24.0458E+06     8.30018E+06    -23.2007E+06    -1.30445E+06    -23.5961E+06              0.    -2.11627E+06
              11        No Value        No Value        No Value        No Value        No Value        No Value     19.7712E-06    -113.202E-06    -113.202E-06              0.     19.7712E-06    -113.202E-06              0.    -113.202E-06     18.9818E-06    -112.413E-06              0.    -20.3703E-06     22.1862E+06    -3.11857E+06    -23.5761E+06    -23.5761E+06              0.              0.    -23.5761E+06    -3.11857E+06    -23.5761E+06     23.5761E+06     8.89821E+06    -21.6705E+06    -3.24002E+06    -23.4546E+06              0.    -1.56694E+06
              12        No Value        No Value        No Value        No Value        No Value        No Value     16.1473E-06    -111.189E-06    -111.189E-06              0.     16.1473E-06    -111.189E-06              0.    -111.189E-06     16.0604E-06    -111.102E-06              0.    -6.60996E-06     21.7299E+06    -3.78229E+06    -23.3725E+06    -23.3725E+06              0.              0.    -23.3725E+06    -3.78229E+06    -23.3725E+06     23.3725E+06     9.05159E+06    -20.9692E+06    -3.79565E+06    -23.3591E+06              0.    -508.459E+03
              13        No Value        No Value        No Value        No Value        No Value        No Value     16.1473E-06    -111.189E-06    -111.189E-06              0.     16.1473E-06    -111.189E-06              0.    -111.189E-06     16.0604E-06    -111.102E-06              0.     6.60996E-06     21.7299E+06    -3.78229E+06    -23.3725E+06    -23.3725E+06              0.              0.    -23.3725E+06    -3.78229E+06    -23.3725E+06     23.3725E+06     9.05159E+06    -20.9692E+06    -3.79565E+06    -23.3591E+06              0.     508.459E+03
              14        No Value        No Value        No Value        No Value        No Value        No Value     19.7712E-06    -113.202E-06    -113.202E-06              0.     19.7712E-06    -113.202E-06              0.    -113.202E-06     18.9818E-06    -112.413E-06              0.     20.3703E-06     22.1862E+06    -3.11857E+06    -23.5761E+06    -23.5761E+06              0.              0.    -23.5761E+06    -3.11857E+06    -23.5761E+06     23.5761E+06     8.89821E+06    -21.6705E+06    -3.24002E+06    -23.4546E+06              0.     1.56694E+06
              15        No Value        No Value        No Value        No Value        No Value        No Value     30.4506E-06    -117.603E-06    -117.603E-06              0.     30.4506E-06    -117.603E-06              0.    -117.603E-06     28.8719E-06    -116.024E-06              0.     27.5115E-06     23.3614E+06    -1.06156E+06    -23.8390E+06    -23.8390E+06              0.     206.852E+03    -23.8390E+06    -1.26841E+06    -23.8390E+06     24.0458E+06     8.30018E+06    -23.2007E+06    -1.30445E+06    -23.5961E+06              0.     2.11627E+06
              16        No Value        No Value        No Value        No Value        No Value        No Value     39.8565E-06    -145.258E-06    -145.258E-06              0.     39.8565E-06    -145.258E-06              0.    -145.258E-06     36.4053E-06    -141.807E-06              0.     50.0784E-06     28.8968E+06    -817.800E+03    -29.2970E+06    -29.2970E+06              0.              0.    -29.2970E+06    -817.800E+03    -29.2970E+06     29.2970E+06     10.0383E+06    -28.8708E+06    -1.34876E+06    -28.7661E+06              0.     3.85218E+06
             257        No Value        No Value        No Value        No Value        No Value        No Value     37.5000E-06    -125.000E-06    -125.000E-06              0.     37.5000E-06    -125.000E-06              0.    -125.000E-06     37.5000E-06    -125.000E-06              0.    -39.7100E-15         25.E+06              0.        -25.E+06        -25.E+06              0.              0.        -25.E+06              0.        -25.E+06         25.E+06     8.33333E+06        -25.E+06    -2.15282E-03        -25.E+06              0.    -3.05462E-03
             258        No Value        No Value        No Value        No Value        No Value        No Value     37.5000E-06    -125.000E-06    -125.000E-06              0.     37.5000E-06    -125.000E-06              0.    -125.000E-06     37.5000E-06    -125.000E-06              0.    -73.3143E-15         25.E+06              0.        -25.E+06        -25.E+06              0.              0.        -25.E+06              0.        -25.E+06         25.E+06     8.33333E+06        -25.E+06    -6.11024E-03        -25.E+06              0.    -5.63956E-03
             259        No Value        No Value        No Value        No Value        No Value        No Value     37.5000E-06    -125.000E-06    -125.000E-06              0.     37.5000E-06    -125.000E-06              0.    -125.000E-06     37.5000E-06    -125.000E-06              0.    -88.2053E-15         25.E+06              0.        -25.E+06        -25.E+06              0.              0.        -25.E+06              0.        -25.E+06         25.E+06     8.33333E+06        -25.E+06    -12.9113E-03        -25.E+06              0.    -6.78502E-03
             260        No Value        No Value        No Value        No Value        No Value        No Value     37.5000E-06    -125.000E-06    -125.000E-06              0.     37.5000E-06    -125.000E-06              0.    -125.000E-06     37.5000E-06    -125.000E-06              0.    -37.2713E-15         25.E+06              0.        -25.E+06        -25.E+06              0.              0.        -25.E+06              0.        -25.E+06         25.E+06     8.33333E+06        -25.E+06    -17.5151E-03        -25.E+06              0.    -2.86702E-03
             261        No Value        No Value        No Value        No Value        No Value        No Value     37.5000E-06    -125.000E-06    -125.000E-06              0.     37.5000E-06    -125.000E-06              0.    -125.000E-06     37.5000E-06    -125.000E-06              0.     37.2730E-15         25.E+06              0.        -25.E+06        -25.E+06              0.              0.        -25.E+06              0.        -25.E+06         25.E+06     8.33333E+06        -25.E+06    -17.5153E-03        -25.E+06              0.     2.86715E-03
             262        No Value        No Value        No Value        No Value        No Value        No Value     37.5000E-06    -125.000E-06    -125.000E-06              0.     37.5000E-06    -125.000E-06              0.    -125.000E-06     37.5000E-06    -125.000E-06              0.     88.2060E-15         25.E+06              0.        -25.E+06        -25.E+06              0.              0.        -25.E+06              0.        -25.E+06         25.E+06     8.33333E+06        -25.E+06    -12.9114E-03        -25.E+06              0.     6.78508E-03
             263        No Value        No Value        No Value        No Value        No Value        No Value     37.5000E-06    -125.000E-06    -125.000E-06              0.     37.5000E-06    -125.000E-06              0.    -125.000E-06     37.5000E-06    -125.000E-06              0.     73.3138E-15         25.E+06              0.        -25.E+06        -25.E+06              0.              0.        -25.E+06              0.        -25.E+06         25.E+06     8.33333E+06        -25.E+06    -6.11020E-03        -25.E+06              0.     5.63952E-03
             264        No Value        No Value        No Value        No Value        No Value        No Value     37.5000E-06    -125.000E-06    -125.000E-06              0.     37.5000E-06    -125.000E-06              0.    -125.000E-06     37.5000E-06    -125.000E-06              0.     39.7105E-15         25.E+06              0.        -25.E+06        -25.E+06              0.              0.        -25.E+06              0.        -25.E+06         25.E+06     8.33333E+06        -25.E+06    -2.15287E-03        -25.E+06              0.     3.05465E-03
             265              0.              0.              0.     124.710E-06    -3.75000E-06    -124.653E-06     37.5000E-06    -125.000E-06    -125.000E-06              0.     37.5000E-06    -125.000E-06              0.    -125.000E-06     37.5000E-06    -125.000E-06              0.    -28.8160E-15         25.E+06              0.        -25.E+06        -25.E+06              0.              0.        -25.E+06              0.        -25.E+06         25.E+06     8.33333E+06        -25.E+06    -3.34423E-03        -25.E+06              0.    -2.21661E-03
             266              0.              0.              0.     124.682E-06    -2.67857E-06    -124.653E-06     37.5000E-06    -125.000E-06    -125.000E-06              0.     37.5000E-06    -125.000E-06              0.    -125.000E-06     37.5000E-06    -125.000E-06              0.    -49.9554E-15         25.E+06              0.        -25.E+06        -25.E+06              0.              0.        -25.E+06              0.        -25.E+06         25.E+06     8.33333E+06        -25.E+06    -8.29938E-03        -25.E+06              0.    -3.84272E-03
             267              0.              0.              0.     124.664E-06    -1.60714E-06    -124.653E-06     37.5000E-06    -125.000E-06    -125.000E-06              0.     37.5000E-06    -125.000E-06              0.    -125.000E-06     37.5000E-06    -125.000E-06              0.    -58.4644E-15         25.E+06              0.        -25.E+06        -25.E+06              0.              0.        -25.E+06              0.        -25.E+06         25.E+06     8.33333E+06        -25.E+06    -19.3841E-03        -25.E+06              0.    -4.49726E-03
             268              0.              0.              0.     124.655E-06    -535.714E-09    -124.653E-06     37.5000E-06    -125.000E-06    -125.000E-06              0.     37.5000E-06    -125.000E-06              0.    -125.000E-06     37.5000E-06    -125.000E-06              0.    -25.4415E-15         25.E+06              0.        -25.E+06        -25.E+06              0.              0.        -25.E+06              0.        -25.E+06         25.E+06     8.33333E+06        -25.E+06    -28.9805E-03        -25.E+06              0.    -1.95704E-03
             269              0.              0.              0.     124.655E-06     535.714E-09    -124.653E-06     37.5000E-06    -125.000E-06    -125.000E-06              0.     37.5000E-06    -125.000E-06              0.    -125.000E-06     37.5000E-06    -125.000E-06              0.     25.4419E-15         25.E+06              0.        -25.E+06        -25.E+06              0.              0.        -25.E+06              0.        -25.E+06         25.E+06     8.33333E+06        -25.E+06    -28.9803E-03        -25.E+06              0.     1.95707E-03
             270              0.              0.              0.     124.664E-06     1.60714E-06    -124.653E-06     37.5000E-06    -125.000E-06    -125.000E-06              0.     37.5000E-06    -125.000E-06              0.    -125.000E-06     37.5000E-06    -125.000E-06              0.     58.4641E-15         25.E+06              0.        -25.E+06        -25.E+06              0.              0.        -25.E+06              0.        -25.E+06         25.E+06     8.33333E+06        -25.E+06    -19.3839E-03        -25.E+06              0.     4.49724E-03
             271              0.              0.              0.     124.682E-06     2.67857E-06    -124.653E-06     37.5000E-06    -125.000E-06    -125.000E-06              0.     37.5000E-06    -125.000E-06              0.    -125.000E-06     37.5000E-06    -125.000E-06              0.     49.9552E-15         25.E+06              0.        -25.E+06        -25.E+06              0.              0.        -25.E+06              0.        -25.E+06         25.E+06     8.33333E+06        -25.E+06    -8.29932E-03        -25.E+06              0.     3.84271E-03
             272              0.              0.              0.     124.710E-06     3.75000E-06    -124.653E-06     37.5000E-06    -125.000E-06    -125.000E-06              0.     37.5000E-06    -125.000E-06              0.    -125.000E-06     37.5000E-06    -125.000E-06              0.     28.8145E-15         25.E+06              0.        -25.E+06        -25.E+06              0.              0.        -25.E+06              0.        -25.E+06         25.E+06     8.33333E+06        -25.E+06    -3.34430E-03        -25.E+06              0.     2.21650E-03


  Minimum                     0.    -145.860E+03              0.              0.    -3.75000E-06    -124.653E-06     119.951E-09    -151.687E-06    -151.687E-06              0.     119.951E-09    -151.687E-06              0.    -151.687E-06    -113.687E-15    -141.807E-06              0.    -77.4244E-06     21.7250E+06    -7.82996E+06    -32.6864E+06    -32.6864E+06              0.              0.    -32.6864E+06    -7.82996E+06    -32.6864E+06     23.3725E+06     8.30018E+06    -28.8708E+06    -9.34993E+06    -31.1664E+06              0.    -5.95572E+06
         At Node             272               8             272               8             265             272               5               8               8             272               5               8             272               8               6              16             272               1               5               8               8               8             272             272               8               8               8              13              15              16               8               8             272               1

  Maximum            707.091E+03     145.860E+03     701.983E+03     124.710E-06     3.75000E-06    -460.716E-33     39.8565E-06    -111.189E-06    -111.189E-06              0.     39.8565E-06    -111.189E-06              0.    -111.189E-06     37.5000E-06    -111.102E-06              0.     77.4244E-06     29.5597E+06              0.    -23.3725E+06    -23.3725E+06              0.     206.852E+03    -23.3725E+06              0.    -23.3725E+06     32.6864E+06     13.5055E+06    -18.6436E+06    -2.15282E-03    -23.3591E+06              0.     5.95573E+06
         At Node               7               1               7             272             272               8              16              13              13             272              16              13             272              13             272              12             272               8               8             272              13              13             272              15              13             272              13               8               8               5             257              13             272               8

           Total     5.05972E+06    -6.83594E-03     5.00000E+06     997.420E-06     227.374E-15    -997.227E-06     842.522E-06    -3.96727E-03    -3.96727E-03              0.     842.522E-06    -3.96727E-03              0.    -3.96727E-03     800.639E-06    -3.92538E-03              0.     3.18323E-12     786.023E+06    -76.4084E+06    -816.376E+06    -816.376E+06              0.     413.703E+03    -816.376E+06    -76.8221E+06    -816.376E+06     816.790E+06     297.595E+06    -760.884E+06    -82.8520E+06    -809.933E+06              0.         1.12500


