********************************************************************************
Field Output Report, written Sat Jun 23 00:17:44 2018

Source 1
---------

   ODB: C:/Users/lucas_omena/Dropbox/Mestrado/Disciplinas/MEF/Novos Exemplos/Q4_45.odb
   Step: Step_Load
   Frame: Increment      1: Step Time =    1.000

Loc 1 : Nodal values from source 1

Output sorted by column "Node Label".

Field Output reported at nodes for part: PART_GEOMETRY-1
   Computation algorithm: EXTRAPOLATE_COMPUTE_AVERAGE
   Averaged at nodes
   Averaging regions: ODB_REGIONS

      Node Label    RF.Magnitude          RF.RF1          RF.RF2     U.Magnitude            U.U1            U.U2     E.Max. In-P  E.Max. In-P(a)     E.Min. In-P     E.Out-of-Pl     E.Max. Prin  E.Max. Prin(a)     E.Mid. Prin     E.Min. Prin           E.E11           E.E22           E.E33           E.E12         S.Mises     S.Max. In-P  S.Max. In-P(a)     S.Min. In-P     S.Out-of-Pl     S.Max. Prin  S.Max. Prin(a)     S.Mid. Prin     S.Min. Prin        S.Tresca      S.Pressure     S.Third Inv           S.S11           S.S22           S.S33           S.S12
                          @Loc 1          @Loc 1          @Loc 1          @Loc 1          @Loc 1          @Loc 1          @Loc 1          @Loc 1          @Loc 1          @Loc 1          @Loc 1          @Loc 1          @Loc 1          @Loc 1          @Loc 1          @Loc 1          @Loc 1          @Loc 1          @Loc 1          @Loc 1          @Loc 1          @Loc 1          @Loc 1          @Loc 1          @Loc 1          @Loc 1          @Loc 1          @Loc 1          @Loc 1          @Loc 1          @Loc 1          @Loc 1          @Loc 1          @Loc 1
---------------------------------------------------------------------------------------------------------------------------------------------------------------------------------------------------------------------------------------------------------------------------------------------------------------------------------------------------------------------------------------------------------------------------------------------------------------------------------------------------------------------------------------------------------------------------------
               1     759.761E+03     206.690E+03     731.106E+03              0.    -206.690E-33    -731.106E-33     7.12981E-06    -139.525E-06    -139.525E-06              0.     7.12981E-06    -139.525E-06              0.    -139.525E-06     909.495E-15    -132.395E-06              0.    -63.0804E-06     27.1940E+06    -7.63244E+06    -30.1947E+06    -30.1947E+06              0.              0.    -30.1947E+06    -7.63244E+06    -30.1947E+06     30.1947E+06     12.6090E+06    -24.6057E+06    -8.72933E+06    -29.0978E+06              0.    -4.85234E+06
               2     1.19148E+06     92.5188E+03     1.18788E+06              0.    -92.5188E-33    -1.18788E-30     1.34328E-06    -114.873E-06    -114.873E-06              0.     1.34328E-06    -114.873E-06              0.    -114.873E-06     909.495E-15    -113.530E-06              0.    -24.8440E-06     22.4231E+06    -7.27880E+06    -25.1582E+06    -25.1582E+06              0.              0.    -25.1582E+06    -7.27880E+06    -25.1582E+06     25.1582E+06     10.8123E+06    -19.4863E+06    -7.48546E+06    -24.9515E+06              0.    -1.91107E+06
               3     1.16203E+06    -2.26163E-03     1.16203E+06              0.     2.26163E-39    -1.16203E-30              0.    -112.750E-06    -112.750E-06              0.              0.    -112.750E-06              0.    -112.750E-06     909.495E-15    -112.750E-06              0.     113.687E-15     22.0251E+06    -7.43406E+06    -24.7802E+06    -24.7802E+06              0.              0.    -24.7802E+06    -7.43406E+06    -24.7802E+06     24.7802E+06     10.7381E+06    -18.8761E+06    -7.43406E+06    -24.7802E+06              0.     -46.875E-03
               4     1.19148E+06    -92.5188E+03     1.18788E+06              0.     92.5188E-33    -1.18788E-30     1.34328E-06    -114.873E-06    -114.873E-06              0.     1.34328E-06    -114.873E-06              0.    -114.873E-06     909.495E-15    -113.530E-06              0.     24.8440E-06     22.4231E+06    -7.27880E+06    -25.1582E+06    -25.1582E+06              0.              0.    -25.1582E+06    -7.27880E+06    -25.1582E+06     25.1582E+06     10.8123E+06    -19.4863E+06    -7.48546E+06    -24.9515E+06              0.     1.91108E+06
               5     759.761E+03    -206.690E+03     731.106E+03              0.     206.690E-33    -731.106E-33     7.12981E-06    -139.525E-06    -139.525E-06              0.     7.12981E-06    -139.525E-06              0.    -139.525E-06     909.495E-15    -132.395E-06              0.     63.0804E-06     27.1940E+06    -7.63244E+06    -30.1947E+06    -30.1947E+06              0.              0.    -30.1947E+06    -7.63244E+06    -30.1947E+06     30.1947E+06     12.6090E+06    -24.6057E+06    -8.72933E+06    -29.0978E+06              0.     4.85234E+06
               6        No Value        No Value        No Value        No Value        No Value        No Value     37.8581E-06    -135.493E-06    -135.493E-06              0.     37.8581E-06    -135.493E-06              0.    -135.493E-06     34.7604E-06    -132.395E-06              0.    -45.9301E-06     26.9811E+06    -613.115E+03    -27.2825E+06    -27.2825E+06              0.              0.    -27.2825E+06    -613.115E+03    -27.2825E+06     27.2825E+06     9.29852E+06    -26.9654E+06    -1.08968E+06    -26.8059E+06              0.    -3.53308E+06
               7        No Value        No Value        No Value        No Value        No Value        No Value     29.2536E-06    -114.110E-06    -114.110E-06              0.     29.2536E-06    -114.110E-06              0.    -114.110E-06     28.6729E-06    -113.530E-06              0.    -15.9144E-06     22.6498E+06    -1.09439E+06    -23.1504E+06    -23.1504E+06              0.     84.7641E+03    -23.1504E+06    -1.17915E+06    -23.1504E+06     23.2351E+06     8.08158E+06    -22.5090E+06    -1.18372E+06    -23.0610E+06              0.    -1.22419E+06
               8        No Value        No Value        No Value        No Value        No Value        No Value     22.5864E-06    -112.751E-06    -112.751E-06              0.     22.5864E-06    -112.751E-06              0.    -112.751E-06     22.5854E-06    -112.750E-06              0.    -454.747E-15     22.1596E+06    -2.47009E+06    -23.2912E+06    -23.2912E+06              0.              0.    -23.2912E+06    -2.47009E+06    -23.2912E+06     23.2912E+06     8.58709E+06    -21.8467E+06    -2.47023E+06    -23.2910E+06              0.      -31.25E-03
               9        No Value        No Value        No Value        No Value        No Value        No Value     29.2536E-06    -114.110E-06    -114.110E-06              0.     29.2536E-06    -114.110E-06              0.    -114.110E-06     28.6729E-06    -113.530E-06              0.     15.9144E-06     22.6498E+06    -1.09439E+06    -23.1504E+06    -23.1504E+06              0.     84.7641E+03    -23.1504E+06    -1.17915E+06    -23.1504E+06     23.2351E+06     8.08158E+06    -22.5090E+06    -1.18372E+06    -23.0610E+06              0.     1.22419E+06
              10        No Value        No Value        No Value        No Value        No Value        No Value     37.8581E-06    -135.493E-06    -135.493E-06              0.     37.8581E-06    -135.493E-06              0.    -135.493E-06     34.7604E-06    -132.395E-06              0.     45.9301E-06     26.9811E+06    -613.115E+03    -27.2825E+06    -27.2825E+06              0.              0.    -27.2825E+06    -613.115E+03    -27.2825E+06     27.2825E+06     9.29852E+06    -26.9654E+06    -1.08968E+06    -26.8059E+06              0.     3.53308E+06
             106        No Value        No Value        No Value        No Value        No Value        No Value     37.5000E-06    -125.000E-06    -125.000E-06              0.     37.5000E-06    -125.000E-06              0.    -125.000E-06     37.5000E-06    -125.000E-06              0.    -129.988E-15         25.E+06              0.        -25.E+06        -25.E+06              0.              0.        -25.E+06              0.        -25.E+06         25.E+06     8.33333E+06        -25.E+06    -11.0366E-03        -25.E+06              0.    -9.99906E-03
             107        No Value        No Value        No Value        No Value        No Value        No Value     37.5000E-06    -125.000E-06    -125.000E-06              0.     37.5000E-06    -125.000E-06              0.    -125.000E-06     37.5000E-06    -125.000E-06              0.    -142.327E-15         25.E+06              0.        -25.E+06        -25.E+06              0.              0.        -25.E+06              0.        -25.E+06         25.E+06     8.33333E+06        -25.E+06    -20.6027E-03        -25.E+06              0.    -10.9482E-03
             108        No Value        No Value        No Value        No Value        No Value        No Value     37.5000E-06    -125.000E-06    -125.000E-06              0.     37.5000E-06    -125.000E-06              0.    -125.000E-06     37.5000E-06    -125.000E-06              0.    -345.589E-21         25.E+06              0.        -25.E+06        -25.E+06              0.              0.        -25.E+06              0.        -25.E+06         25.E+06     8.33333E+06        -25.E+06    -29.6878E-03        -25.E+06              0.    -27.0084E-09
             109        No Value        No Value        No Value        No Value        No Value        No Value     37.5000E-06    -125.000E-06    -125.000E-06              0.     37.5000E-06    -125.000E-06              0.    -125.000E-06     37.5000E-06    -125.000E-06              0.     142.327E-15         25.E+06              0.        -25.E+06        -25.E+06              0.              0.        -25.E+06              0.        -25.E+06         25.E+06     8.33333E+06        -25.E+06    -20.6028E-03        -25.E+06              0.     10.9482E-03
             110        No Value        No Value        No Value        No Value        No Value        No Value     37.5000E-06    -125.000E-06    -125.000E-06              0.     37.5000E-06    -125.000E-06              0.    -125.000E-06     37.5000E-06    -125.000E-06              0.     129.988E-15         25.E+06              0.        -25.E+06        -25.E+06              0.              0.        -25.E+06              0.        -25.E+06         25.E+06     8.33333E+06        -25.E+06    -11.0367E-03        -25.E+06              0.     9.99909E-03
             111              0.              0.              0.     124.677E-06    -3.75000E-06    -124.621E-06     37.5000E-06    -125.000E-06    -125.000E-06              0.     37.5000E-06    -125.000E-06              0.    -125.000E-06     37.5000E-06    -125.000E-06              0.    -71.7952E-15         25.E+06              0.        -25.E+06        -25.E+06              0.              0.        -25.E+06              0.        -25.E+06         25.E+06     8.33333E+06        -25.E+06    -10.2957E-03        -25.E+06              0.    -5.52271E-03
             112              0.              0.              0.     124.635E-06    -1.87500E-06    -124.621E-06     37.5000E-06    -125.000E-06    -125.000E-06              0.     37.5000E-06    -125.000E-06              0.    -125.000E-06     37.5000E-06    -125.000E-06              0.    -80.8205E-15         25.E+06              0.        -25.E+06        -25.E+06              0.              0.        -25.E+06              0.        -25.E+06         25.E+06     8.33333E+06        -25.E+06    -15.8365E-03        -25.E+06              0.    -6.21697E-03
             113              0.              0.              0.     124.621E-06     832.755E-18    -124.621E-06     37.5000E-06    -125.000E-06    -125.000E-06              0.     37.5000E-06    -125.000E-06              0.    -125.000E-06     37.5000E-06    -125.000E-06              0.    -77.9270E-21         25.E+06              0.        -25.E+06        -25.E+06              0.              0.        -25.E+06              0.        -25.E+06         25.E+06     8.33333E+06        -25.E+06    -20.8966E-03        -25.E+06              0.    -5.82077E-09
             114              0.              0.              0.     124.635E-06     1.87500E-06    -124.621E-06     37.5000E-06    -125.000E-06    -125.000E-06              0.     37.5000E-06    -125.000E-06              0.    -125.000E-06     37.5000E-06    -125.000E-06              0.     80.8197E-15         25.E+06              0.        -25.E+06        -25.E+06              0.              0.        -25.E+06              0.        -25.E+06         25.E+06     8.33333E+06        -25.E+06    -15.8366E-03        -25.E+06              0.     6.21690E-03
             115              0.              0.              0.     124.677E-06     3.75000E-06    -124.621E-06     37.5000E-06    -125.000E-06    -125.000E-06              0.     37.5000E-06    -125.000E-06              0.    -125.000E-06     37.5000E-06    -125.000E-06              0.     71.7966E-15         25.E+06              0.        -25.E+06        -25.E+06              0.              0.        -25.E+06              0.        -25.E+06         25.E+06     8.33333E+06        -25.E+06    -10.2957E-03        -25.E+06              0.     5.52282E-03


  Minimum                     0.    -206.690E+03              0.              0.    -3.75000E-06    -124.621E-06              0.    -139.525E-06    -139.525E-06              0.              0.    -139.525E-06              0.    -139.525E-06     909.495E-15    -132.395E-06              0.    -63.0804E-06     22.0251E+06    -7.63244E+06    -30.1947E+06    -30.1947E+06              0.              0.    -30.1947E+06    -7.63244E+06    -30.1947E+06     23.2351E+06     8.08158E+06    -26.9654E+06    -8.72933E+06    -29.0978E+06              0.    -4.85234E+06
         At Node             115               5             115               5             111             115               3               1               1             115               3               1             115               1               5              10             115               1               3               5               5               5             115             115               5               5               5               9               9              10               5               5             115               1

  Maximum            1.19148E+06     206.690E+03     1.18788E+06     124.677E-06     3.75000E-06    -731.106E-33     37.8581E-06    -112.750E-06    -112.750E-06              0.     37.8581E-06    -112.750E-06              0.    -112.750E-06     37.5000E-06    -112.750E-06              0.     63.0804E-06     27.1940E+06              0.    -23.1504E+06    -23.1504E+06              0.     84.7641E+03    -23.1504E+06              0.    -23.1504E+06     30.1947E+06     12.6090E+06    -18.8761E+06    -10.2957E-03    -23.0610E+06              0.     4.85234E+06
         At Node               4               1               4             115             115               5              10               3               3             115              10               3             115               3             115               8             115               5               5             115               9               9             115               9               9             115               9               5               5               3             115               9             115               5

           Total     5.06451E+06    -10.0741E-03     5.00000E+06     623.244E-06     228.206E-15    -623.103E-06     548.756E-06    -2.48350E-03    -2.48350E-03              0.     548.756E-06    -2.48350E-03              0.    -2.48350E-03     524.452E-06    -2.45920E-03              0.     12.3919E-12     492.681E+06    -43.1416E+06    -509.643E+06    -509.643E+06              0.     169.528E+03    -509.643E+06    -43.3112E+06    -509.643E+06     509.812E+06     184.261E+06    -477.856E+06    -46.8807E+06    -505.904E+06              0.     546.875E-03


