********************************************************************************
Field Output Report, written Sat Jun 23 00:18:27 2018

Source 1
---------

   ODB: C:/Users/lucas_omena/Dropbox/Mestrado/Disciplinas/MEF/Novos Exemplos/Q4_60.odb
   Step: Step_Load
   Frame: Increment      1: Step Time =    1.000

Loc 1 : Nodal values from source 1

Output sorted by column "Node Label".

Field Output reported at nodes for part: PART_GEOMETRY-1
   Computation algorithm: EXTRAPOLATE_COMPUTE_AVERAGE
   Averaged at nodes
   Averaging regions: ODB_REGIONS

      Node Label    RF.Magnitude          RF.RF1          RF.RF2     U.Magnitude            U.U1            U.U2     E.Max. In-P  E.Max. In-P(a)     E.Min. In-P     E.Out-of-Pl     E.Max. Prin  E.Max. Prin(a)     E.Mid. Prin     E.Min. Prin           E.E11           E.E22           E.E33           E.E12         S.Mises     S.Max. In-P  S.Max. In-P(a)     S.Min. In-P     S.Out-of-Pl     S.Max. Prin  S.Max. Prin(a)     S.Mid. Prin     S.Min. Prin        S.Tresca      S.Pressure     S.Third Inv           S.S11           S.S22           S.S33           S.S12
                          @Loc 1          @Loc 1          @Loc 1          @Loc 1          @Loc 1          @Loc 1          @Loc 1          @Loc 1          @Loc 1          @Loc 1          @Loc 1          @Loc 1          @Loc 1          @Loc 1          @Loc 1          @Loc 1          @Loc 1          @Loc 1          @Loc 1          @Loc 1          @Loc 1          @Loc 1          @Loc 1          @Loc 1          @Loc 1          @Loc 1          @Loc 1          @Loc 1          @Loc 1          @Loc 1          @Loc 1          @Loc 1          @Loc 1          @Loc 1
---------------------------------------------------------------------------------------------------------------------------------------------------------------------------------------------------------------------------------------------------------------------------------------------------------------------------------------------------------------------------------------------------------------------------------------------------------------------------------------------------------------------------------------------------------------------------------
               1     966.838E+03     248.417E+03     934.380E+03              0.    -248.417E-33    -934.380E-33     5.55134E-06    -133.842E-06    -133.842E-06              0.     5.55134E-06    -133.842E-06              0.    -133.842E-06              0.    -128.291E-06              0.    -54.5162E-06     26.0924E+06     -7.6047E+06    -29.0499E+06    -29.0499E+06              0.              0.    -29.0499E+06     -7.6047E+06    -29.0499E+06     29.0499E+06     12.2182E+06    -23.3973E+06    -8.45875E+06    -28.1958E+06              0.    -4.19355E+06
               2     1.56733E+06     73.1537E+03     1.56562E+06              0.    -73.1537E-33    -1.56562E-30     478.771E-09    -114.174E-06    -114.174E-06              0.     478.771E-09    -114.174E-06              0.    -114.174E-06     113.687E-15    -113.695E-06              0.    -14.7869E-06     22.2969E+06    -7.42271E+06    -25.0615E+06    -25.0615E+06              0.              0.    -25.0615E+06    -7.42271E+06    -25.0615E+06     25.0615E+06     10.8281E+06    -19.2067E+06    -7.49636E+06    -24.9879E+06              0.    -1.13745E+06
               3     1.56733E+06    -73.1537E+03     1.56562E+06              0.     73.1537E-33    -1.56562E-30     478.771E-09    -114.174E-06    -114.174E-06              0.     478.771E-09    -114.174E-06              0.    -114.174E-06     454.747E-15    -113.695E-06              0.     14.7869E-06     22.2969E+06    -7.42271E+06    -25.0615E+06    -25.0615E+06              0.              0.    -25.0615E+06    -7.42271E+06    -25.0615E+06     25.0615E+06     10.8281E+06    -19.2067E+06    -7.49636E+06    -24.9879E+06              0.     1.13745E+06
               4     966.838E+03    -248.417E+03     934.379E+03              0.     248.417E-33    -934.379E-33     5.55134E-06    -133.842E-06    -133.842E-06              0.     5.55134E-06    -133.842E-06              0.    -133.842E-06     909.495E-15    -128.291E-06              0.     54.5162E-06     26.0924E+06     -7.6047E+06    -29.0499E+06    -29.0499E+06              0.              0.    -29.0499E+06     -7.6047E+06    -29.0499E+06     29.0499E+06     12.2182E+06    -23.3973E+06    -8.45875E+06    -28.1958E+06              0.     4.19355E+06
               5        No Value        No Value        No Value        No Value        No Value        No Value     37.6669E-06    -130.903E-06    -130.903E-06              0.     37.6669E-06    -130.903E-06              0.    -130.903E-06     35.0553E-06    -128.291E-06              0.    -41.6372E-06     26.1118E+06    -352.511E+03    -26.2863E+06    -26.2863E+06              0.              0.    -26.2863E+06    -352.511E+03    -26.2863E+06     26.2863E+06     8.87960E+06    -26.1065E+06    -754.293E+03    -25.8845E+06              0.    -3.20286E+06
               6        No Value        No Value        No Value        No Value        No Value        No Value     30.7729E-06    -113.893E-06    -113.893E-06              0.     30.7729E-06    -113.893E-06              0.    -113.893E-06     30.5749E-06    -113.695E-06              0.    -8.34738E-06     22.6538E+06    -746.139E+03    -23.0024E+06    -23.0024E+06              0.     104.519E+03    -23.0024E+06    -850.658E+03    -23.0024E+06     23.1069E+06     7.91619E+06    -22.5801E+06    -776.606E+03    -22.9720E+06              0.    -642.106E+03
               7        No Value        No Value        No Value        No Value        No Value        No Value     30.7729E-06    -113.893E-06    -113.893E-06              0.     30.7729E-06    -113.893E-06              0.    -113.893E-06     30.5749E-06    -113.695E-06              0.     8.34738E-06     22.6538E+06    -746.139E+03    -23.0024E+06    -23.0024E+06              0.     104.519E+03    -23.0024E+06    -850.658E+03    -23.0024E+06     23.1069E+06     7.91619E+06    -22.5801E+06    -776.606E+03    -22.9720E+06              0.     642.106E+03
               8        No Value        No Value        No Value        No Value        No Value        No Value     37.6669E-06    -130.903E-06    -130.903E-06              0.     37.6669E-06    -130.903E-06              0.    -130.903E-06     35.0553E-06    -128.291E-06              0.     41.6372E-06     26.1118E+06    -352.509E+03    -26.2863E+06    -26.2863E+06              0.              0.    -26.2863E+06    -352.509E+03    -26.2863E+06     26.2863E+06     8.87960E+06    -26.1065E+06    -754.293E+03    -25.8845E+06              0.     3.20286E+06
              65        No Value        No Value        No Value        No Value        No Value        No Value     37.5000E-06    -125.000E-06    -125.000E-06              0.     37.5000E-06    -125.000E-06              0.    -125.000E-06     37.5000E-06    -125.000E-06              0.    -253.528E-15         25.E+06              0.        -25.E+06        -25.E+06              0.              0.        -25.E+06              0.        -25.E+06         25.E+06     8.33333E+06        -25.E+06    -30.8520E-03        -25.E+06              0.    -19.5022E-03
              66        No Value        No Value        No Value        No Value        No Value        No Value     37.5000E-06    -125.000E-06    -125.000E-06              0.     37.5000E-06    -125.000E-06              0.    -125.000E-06     37.5000E-06    -125.000E-06              0.    -144.304E-15         25.E+06              0.        -25.E+06        -25.E+06              0.              0.        -25.E+06              0.        -25.E+06         25.E+06     8.33333E+06        -25.E+06    -41.7317E-03        -25.E+06              0.    -11.1003E-03
              67        No Value        No Value        No Value        No Value        No Value        No Value     37.5000E-06    -125.000E-06    -125.000E-06              0.     37.5000E-06    -125.000E-06              0.    -125.000E-06     37.5000E-06    -125.000E-06              0.     144.303E-15         25.E+06              0.        -25.E+06        -25.E+06              0.              0.        -25.E+06              0.        -25.E+06         25.E+06     8.33333E+06        -25.E+06    -41.7317E-03        -25.E+06              0.     11.1002E-03
              68        No Value        No Value        No Value        No Value        No Value        No Value     37.5000E-06    -125.000E-06    -125.000E-06              0.     37.5000E-06    -125.000E-06              0.    -125.000E-06     37.5000E-06    -125.000E-06              0.     253.529E-15         25.E+06              0.        -25.E+06        -25.E+06              0.              0.        -25.E+06              0.        -25.E+06         25.E+06     8.33333E+06        -25.E+06    -30.8520E-03        -25.E+06              0.     19.5022E-03
              69              0.              0.              0.     124.647E-06    -3.75000E-06    -124.591E-06     37.5000E-06    -125.000E-06    -125.000E-06              0.     37.5000E-06    -125.000E-06              0.    -125.000E-06     37.5000E-06    -125.000E-06              0.    -125.178E-15         25.E+06              0.        -25.E+06        -25.E+06              0.              0.        -25.E+06              0.        -25.E+06         25.E+06     8.33333E+06        -25.E+06    -12.3757E-03        -25.E+06              0.    -9.62905E-03
              70              0.              0.              0.     124.597E-06    -1.25000E-06    -124.591E-06     37.5000E-06    -125.000E-06    -125.000E-06              0.     37.5000E-06    -125.000E-06              0.    -125.000E-06     37.5000E-06    -125.000E-06              0.    -80.1283E-15         25.E+06              0.        -25.E+06        -25.E+06              0.              0.        -25.E+06              0.        -25.E+06         25.E+06     8.33333E+06        -25.E+06    -7.21474E-03        -25.E+06              0.    -6.16371E-03
              71              0.              0.              0.     124.597E-06     1.25000E-06    -124.591E-06     37.5000E-06    -125.000E-06    -125.000E-06              0.     37.5000E-06    -125.000E-06              0.    -125.000E-06     37.5000E-06    -125.000E-06              0.     80.1278E-15         25.E+06              0.        -25.E+06        -25.E+06              0.              0.        -25.E+06              0.        -25.E+06         25.E+06     8.33333E+06        -25.E+06    -7.21475E-03        -25.E+06              0.     6.16368E-03
              72              0.              0.              0.     124.647E-06     3.75000E-06    -124.591E-06     37.5000E-06    -125.000E-06    -125.000E-06              0.     37.5000E-06    -125.000E-06              0.    -125.000E-06     37.5000E-06    -125.000E-06              0.     125.177E-15         25.E+06              0.        -25.E+06        -25.E+06              0.              0.        -25.E+06              0.        -25.E+06         25.E+06     8.33333E+06        -25.E+06    -12.3758E-03        -25.E+06              0.     9.62901E-03


  Minimum                     0.    -248.417E+03              0.              0.    -3.75000E-06    -124.591E-06     478.771E-09    -133.842E-06    -133.842E-06              0.     478.771E-09    -133.842E-06              0.    -133.842E-06              0.    -128.291E-06              0.    -54.5162E-06     22.2969E+06     -7.6047E+06    -29.0499E+06    -29.0499E+06              0.              0.    -29.0499E+06     -7.6047E+06    -29.0499E+06     23.1069E+06     7.91619E+06    -26.1065E+06    -8.45875E+06    -28.1958E+06              0.    -4.19355E+06
         At Node              72               4              72               4              69              72               2               4               4              72               2               4              72               4               1               8              72               1               3               4               4               4              72              72               4               4               4               7               7               5               4               4              72               1

  Maximum            1.56733E+06     248.417E+03     1.56562E+06     124.647E-06     3.75000E-06    -934.379E-33     37.6669E-06    -113.893E-06    -113.893E-06              0.     37.6669E-06    -113.893E-06              0.    -113.893E-06     37.5000E-06    -113.695E-06              0.     54.5162E-06     26.1118E+06              0.    -23.0024E+06    -23.0024E+06              0.     104.519E+03    -23.0024E+06              0.    -23.0024E+06     29.0499E+06     12.2182E+06    -19.2067E+06    -7.21474E-03    -22.9720E+06              0.     4.19355E+06
         At Node               2               1               2              72              72               4               8               7               7              72               8               7              72               7              68               7              72               4               5              72               7               7              72               7               7              72               7               4               4               3              70               7              72               4

           Total     5.06833E+06     -7.8125E-03     5.00000E+06     498.489E-06     568.434E-15    -498.363E-06     448.940E-06    -1.98562E-03    -1.98562E-03              0.     448.940E-06    -1.98562E-03              0.    -1.98562E-03     431.260E-06    -1.96794E-03              0.     1.81899E-12     394.310E+06    -32.2521E+06    -406.800E+06    -406.800E+06              0.     209.037E+03    -406.800E+06    -32.4611E+06    -406.800E+06     407.009E+06     146.351E+06    -382.581E+06    -34.9720E+06    -404.080E+06              0.     312.500E-03


