********************************************************************************
Field Output Report, written Sat Jun 23 00:19:45 2018

Source 1
---------

   ODB: C:/Users/lucas_omena/Dropbox/Mestrado/Disciplinas/MEF/Novos Exemplos/Q4_75.odb
   Step: Step_Load
   Frame: Increment      1: Step Time =    1.000

Loc 1 : Nodal values from source 1

Output sorted by column "Node Label".

Field Output reported at nodes for part: PART_GEOMETRY-1
   Computation algorithm: EXTRAPOLATE_COMPUTE_AVERAGE
   Averaged at nodes
   Averaging regions: ODB_REGIONS

      Node Label    RF.Magnitude          RF.RF1          RF.RF2     U.Magnitude            U.U1            U.U2     E.Max. In-P  E.Max. In-P(a)     E.Min. In-P     E.Out-of-Pl     E.Max. Prin  E.Max. Prin(a)     E.Mid. Prin     E.Min. Prin           E.E11           E.E22           E.E33           E.E12         S.Mises     S.Max. In-P  S.Max. In-P(a)     S.Min. In-P     S.Out-of-Pl     S.Max. Prin  S.Max. Prin(a)     S.Mid. Prin     S.Min. Prin        S.Tresca      S.Pressure     S.Third Inv           S.S11           S.S22           S.S33           S.S12
                          @Loc 1          @Loc 1          @Loc 1          @Loc 1          @Loc 1          @Loc 1          @Loc 1          @Loc 1          @Loc 1          @Loc 1          @Loc 1          @Loc 1          @Loc 1          @Loc 1          @Loc 1          @Loc 1          @Loc 1          @Loc 1          @Loc 1          @Loc 1          @Loc 1          @Loc 1          @Loc 1          @Loc 1          @Loc 1          @Loc 1          @Loc 1          @Loc 1          @Loc 1          @Loc 1          @Loc 1          @Loc 1          @Loc 1          @Loc 1
---------------------------------------------------------------------------------------------------------------------------------------------------------------------------------------------------------------------------------------------------------------------------------------------------------------------------------------------------------------------------------------------------------------------------------------------------------------------------------------------------------------------------------------------------------------------------------
               1     973.417E+03     274.226E+03     933.992E+03              0.    -274.226E-33    -933.992E-33     4.13618E-06    -130.613E-06    -130.613E-06              0.     4.13618E-06    -130.613E-06              0.    -130.613E-06     1.36424E-12    -126.477E-06              0.    -46.4860E-06     25.4710E+06    -7.70278E+06    -28.4334E+06    -28.4334E+06              0.              0.    -28.4334E+06    -7.70278E+06    -28.4334E+06     28.4334E+06     12.0454E+06    -22.6192E+06    -8.33912E+06    -27.7971E+06              0.    -3.57585E+06
               2     1.56729E+06     63.3385E+03     1.56601E+06              0.    -63.3385E-33    -1.56601E-30     394.414E-09    -115.827E-06    -115.827E-06              0.     394.414E-09    -115.827E-06              0.    -115.827E-06     909.495E-15    -115.432E-06              0.    -13.5179E-06     22.6209E+06    -7.55025E+06    -25.4304E+06    -25.4304E+06              0.              0.    -25.4304E+06    -7.55025E+06    -25.4304E+06     25.4304E+06     10.9936E+06    -19.4674E+06    -7.61092E+06    -25.3698E+06              0.    -1.03984E+06
               3     1.56729E+06    -63.3385E+03     1.56601E+06              0.     63.3385E-33    -1.56601E-30     394.414E-09    -115.827E-06    -115.827E-06              0.     394.414E-09    -115.827E-06              0.    -115.827E-06     682.121E-15    -115.432E-06              0.     13.5179E-06     22.6209E+06    -7.55025E+06    -25.4304E+06    -25.4304E+06              0.              0.    -25.4304E+06    -7.55025E+06    -25.4304E+06     25.4304E+06     10.9936E+06    -19.4674E+06    -7.61092E+06    -25.3698E+06              0.     1.03984E+06
               4     973.417E+03    -274.226E+03     933.992E+03              0.     274.226E-33    -933.992E-33     4.13618E-06    -130.613E-06    -130.613E-06              0.     4.13618E-06    -130.613E-06              0.    -130.613E-06     1.81899E-12    -126.477E-06              0.     46.4860E-06     25.4710E+06    -7.70278E+06    -28.4334E+06    -28.4334E+06              0.              0.    -28.4334E+06    -7.70278E+06    -28.4334E+06     28.4334E+06     12.0454E+06    -22.6192E+06    -8.33912E+06    -27.7971E+06              0.     3.57585E+06
               5        No Value        No Value        No Value        No Value        No Value        No Value     39.7525E-06    -128.189E-06    -128.189E-06              0.     39.7525E-06    -128.189E-06              0.    -128.189E-06     38.0401E-06    -126.477E-06              0.    -33.7427E-06     25.6959E+06     284.786E+03    -25.5524E+06    -25.5524E+06              0.     284.786E+03    -25.5524E+06              0.    -25.5524E+06     25.8371E+06     8.42252E+06    -25.6924E+06     21.3489E+03    -25.2889E+06              0.    -2.59559E+06
               6        No Value        No Value        No Value        No Value        No Value        No Value     34.7736E-06    -115.588E-06    -115.588E-06              0.     34.7736E-06    -115.588E-06              0.    -115.588E-06     34.6177E-06    -115.432E-06              0.    -7.14626E-06     23.1305E+06     21.3468E+03    -23.1113E+06    -23.1113E+06              0.     374.845E+03    -23.1113E+06    -353.498E+03    -23.1113E+06     23.4861E+06     7.69664E+06    -23.1047E+06    -2.64375E+03    -23.0873E+06              0.    -549.712E+03
               7        No Value        No Value        No Value        No Value        No Value        No Value     34.7736E-06    -115.588E-06    -115.588E-06              0.     34.7736E-06    -115.588E-06              0.    -115.588E-06     34.6177E-06    -115.432E-06              0.     7.14626E-06     23.1305E+06     21.3468E+03    -23.1113E+06    -23.1113E+06              0.     374.845E+03    -23.1113E+06    -353.498E+03    -23.1113E+06     23.4861E+06     7.69664E+06    -23.1047E+06    -2.64375E+03    -23.0873E+06              0.     549.712E+03
               8        No Value        No Value        No Value        No Value        No Value        No Value     39.7525E-06    -128.189E-06    -128.189E-06              0.     39.7525E-06    -128.189E-06              0.    -128.189E-06     38.0401E-06    -126.477E-06              0.     33.7427E-06     25.6959E+06     284.786E+03    -25.5524E+06    -25.5524E+06              0.     284.786E+03    -25.5524E+06              0.    -25.5524E+06     25.8371E+06     8.42252E+06    -25.6924E+06      21.349E+03    -25.2889E+06              0.     2.59559E+06
              49        No Value        No Value        No Value        No Value        No Value        No Value     37.5000E-06    -125.000E-06    -125.000E-06              0.     37.5000E-06    -125.000E-06              0.    -125.000E-06     37.5000E-06    -125.000E-06              0.     6.86301E-15         25.E+06              0.        -25.E+06        -25.E+06              0.              0.        -25.E+06              0.        -25.E+06         25.E+06     8.33333E+06        -25.E+06    -121.572E-03        -25.E+06              0.     527.924E-06
              50        No Value        No Value        No Value        No Value        No Value        No Value     37.5000E-06    -125.000E-06    -125.000E-06              0.     37.5000E-06    -125.000E-06              0.    -125.000E-06     37.5000E-06    -125.000E-06              0.     61.1887E-15         25.E+06              0.        -25.E+06        -25.E+06              0.              0.        -25.E+06              0.        -25.E+06         25.E+06     8.33333E+06        -25.E+06    -178.573E-03        -25.E+06              0.     4.70683E-03
              51        No Value        No Value        No Value        No Value        No Value        No Value     37.5000E-06    -125.000E-06    -125.000E-06              0.     37.5000E-06    -125.000E-06              0.    -125.000E-06     37.5000E-06    -125.000E-06              0.    -61.1893E-15         25.E+06              0.        -25.E+06        -25.E+06              0.              0.        -25.E+06              0.        -25.E+06         25.E+06     8.33333E+06        -25.E+06    -178.573E-03        -25.E+06              0.    -4.70687E-03
              52        No Value        No Value        No Value        No Value        No Value        No Value     37.5000E-06    -125.000E-06    -125.000E-06              0.     37.5000E-06    -125.000E-06              0.    -125.000E-06     37.5000E-06    -125.000E-06              0.    -6.86355E-15         25.E+06              0.        -25.E+06        -25.E+06              0.              0.        -25.E+06              0.        -25.E+06         25.E+06     8.33333E+06        -25.E+06    -121.572E-03        -25.E+06              0.    -527.967E-06
              53              0.              0.              0.     124.613E-06    -3.75000E-06    -124.557E-06     37.5000E-06    -125.000E-06    -125.000E-06              0.     37.5000E-06    -125.000E-06              0.    -125.000E-06     37.5000E-06    -125.000E-06              0.    -291.118E-15         25.E+06              0.        -25.E+06        -25.E+06              0.              0.        -25.E+06              0.        -25.E+06         25.E+06     8.33333E+06        -25.E+06     86.7230E-03        -25.E+06              0.    -22.3937E-03
              54              0.              0.              0.     124.563E-06    -1.25000E-06    -124.557E-06     37.5000E-06    -125.000E-06    -125.000E-06              0.     37.5000E-06    -125.000E-06              0.    -125.000E-06     37.5000E-06    -125.000E-06              0.    -87.8017E-15         25.E+06              0.        -25.E+06        -25.E+06              0.              0.        -25.E+06              0.        -25.E+06         25.E+06     8.33333E+06        -25.E+06     104.576E-03        -25.E+06              0.    -6.75398E-03
              55              0.              0.              0.     124.563E-06     1.25000E-06    -124.557E-06     37.5000E-06    -125.000E-06    -125.000E-06              0.     37.5000E-06    -125.000E-06              0.    -125.000E-06     37.5000E-06    -125.000E-06              0.     87.8012E-15         25.E+06              0.        -25.E+06        -25.E+06              0.              0.        -25.E+06              0.        -25.E+06         25.E+06     8.33333E+06        -25.E+06     104.576E-03        -25.E+06              0.     6.75394E-03
              56              0.              0.              0.     124.613E-06     3.75000E-06    -124.557E-06     37.5000E-06    -125.000E-06    -125.000E-06              0.     37.5000E-06    -125.000E-06              0.    -125.000E-06     37.5000E-06    -125.000E-06              0.     291.119E-15         25.E+06              0.        -25.E+06        -25.E+06              0.              0.        -25.E+06              0.        -25.E+06         25.E+06     8.33333E+06        -25.E+06     86.7231E-03        -25.E+06              0.     22.3938E-03


  Minimum                     0.    -274.226E+03              0.              0.    -3.75000E-06    -124.557E-06     394.414E-09    -130.613E-06    -130.613E-06              0.     394.414E-09    -130.613E-06              0.    -130.613E-06     682.121E-15    -126.477E-06              0.    -46.4860E-06     22.6209E+06    -7.70278E+06    -28.4334E+06    -28.4334E+06              0.              0.    -28.4334E+06    -7.70278E+06    -28.4334E+06     23.4861E+06     7.69664E+06    -25.6924E+06    -8.33912E+06    -27.7971E+06              0.    -3.57585E+06
         At Node              56               4              56               4              53              56               2               4               4              56               2               4              56               4               3               8              56               1               3               4               4               4              56              56               4               4               4               7               7               5               4               4              56               1

  Maximum            1.56729E+06     274.226E+03     1.56601E+06     124.613E-06     3.75000E-06    -933.992E-33     39.7525E-06    -115.588E-06    -115.588E-06              0.     39.7525E-06    -115.588E-06              0.    -115.588E-06     38.0401E-06    -115.432E-06              0.     46.4860E-06     25.6959E+06     284.786E+03    -23.1113E+06    -23.1113E+06              0.     374.845E+03    -23.1113E+06              0.    -23.1113E+06     28.4334E+06     12.0454E+06    -19.4674E+06      21.349E+03    -23.0873E+06              0.     3.57585E+06
         At Node               2               1               2              56              56               4               8               6               6              56               8               6              56               6               8               6              56               4               5               8               7               7              56               7               7              56               7               4               4               3               8               7              56               4

           Total     5.08141E+06     -7.8125E-03     5.00000E+06     498.353E-06     454.747E-15    -498.228E-06     458.113E-06    -1.98043E-03    -1.98043E-03              0.     458.113E-06    -1.98043E-03              0.    -1.98043E-03     445.316E-06    -1.96764E-03              0.     1.36424E-12     393.837E+06    -29.8938E+06    -405.055E+06    -405.055E+06              0.     1.31926E+06    -405.055E+06    -31.2130E+06    -405.055E+06     406.374E+06     144.983E+06    -381.767E+06    -31.8627E+06    -403.086E+06              0.     187.500E-03


