********************************************************************************
Field Output Report, written Sat Jun 23 00:28:02 2018

Source 1
---------

   ODB: C:/Users/lucas_omena/Dropbox/Mestrado/Disciplinas/MEF/Novos Exemplos/Q4_90.odb
   Step: Step_Load
   Frame: Increment      1: Step Time =    1.000

Loc 1 : Nodal values from source 1

Output sorted by column "Node Label".

Field Output reported at nodes for part: PART_GEOMETRY-1
   Computation algorithm: EXTRAPOLATE_COMPUTE_AVERAGE
   Averaged at nodes
   Averaging regions: ODB_REGIONS

      Node Label    RF.Magnitude          RF.RF1          RF.RF2     U.Magnitude            U.U1            U.U2     E.Max. In-P  E.Max. In-P(a)     E.Min. In-P     E.Out-of-Pl     E.Max. Prin  E.Max. Prin(a)     E.Mid. Prin     E.Min. Prin           E.E11           E.E22           E.E33           E.E12         S.Mises     S.Max. In-P  S.Max. In-P(a)     S.Min. In-P     S.Out-of-Pl     S.Max. Prin  S.Max. Prin(a)     S.Mid. Prin     S.Min. Prin        S.Tresca      S.Pressure     S.Third Inv           S.S11           S.S22           S.S33           S.S12
                          @Loc 1          @Loc 1          @Loc 1          @Loc 1          @Loc 1          @Loc 1          @Loc 1          @Loc 1          @Loc 1          @Loc 1          @Loc 1          @Loc 1          @Loc 1          @Loc 1          @Loc 1          @Loc 1          @Loc 1          @Loc 1          @Loc 1          @Loc 1          @Loc 1          @Loc 1          @Loc 1          @Loc 1          @Loc 1          @Loc 1          @Loc 1          @Loc 1          @Loc 1          @Loc 1          @Loc 1          @Loc 1          @Loc 1          @Loc 1
---------------------------------------------------------------------------------------------------------------------------------------------------------------------------------------------------------------------------------------------------------------------------------------------------------------------------------------------------------------------------------------------------------------------------------------------------------------------------------------------------------------------------------------------------------------------------------
               1     1.36794E+06     322.151E+03     1.32947E+06              0.    -322.151E-33    -1.32947E-30     3.34355E-06    -127.445E-06    -127.445E-06              0.     3.34355E-06    -127.445E-06              0.    -127.445E-06     454.747E-15    -124.101E-06              0.    -41.2853E-06     24.8588E+06    -7.66811E+06    -27.7894E+06    -27.7894E+06              0.              0.    -27.7894E+06    -7.66811E+06    -27.7894E+06     27.7894E+06     11.8192E+06    -21.9515E+06    -8.18251E+06    -27.2750E+06              0.    -3.17579E+06
               2     2.34107E+06     552.584E-06     2.34107E+06              0.    -552.584E-42    -2.34107E-30              0.    -114.658E-06    -114.658E-06              0.              0.    -114.658E-06              0.    -114.658E-06     227.374E-15    -114.658E-06              0.     113.687E-15     22.3979E+06    -7.55989E+06    -25.1996E+06    -25.1996E+06              0.              0.    -25.1996E+06    -7.55989E+06    -25.1996E+06     25.1996E+06     10.9198E+06    -19.1956E+06    -7.55989E+06    -25.1996E+06              0.    -54.6875E-03
               3     1.36794E+06    -322.151E+03     1.32947E+06              0.     322.151E-33    -1.32947E-30     3.34355E-06    -127.445E-06    -127.445E-06              0.     3.34355E-06    -127.445E-06              0.    -127.445E-06              0.    -124.101E-06              0.     41.2853E-06     24.8588E+06    -7.66811E+06    -27.7894E+06    -27.7894E+06              0.              0.    -27.7894E+06    -7.66811E+06    -27.7894E+06     27.7894E+06     11.8192E+06    -21.9515E+06    -8.18251E+06    -27.2750E+06              0.     3.17579E+06
               4        No Value        No Value        No Value        No Value        No Value        No Value     39.1694E-06    -125.739E-06    -125.739E-06              0.     39.1694E-06    -125.739E-06              0.    -125.739E-06     37.5321E-06    -124.101E-06              0.    -32.7007E-06     25.2129E+06     318.202E+03    -25.0523E+06    -25.0523E+06              0.     318.202E+03    -25.0523E+06              0.    -25.0523E+06     25.3705E+06     8.24469E+06    -25.2084E+06     66.2991E+03    -24.8004E+06              0.    -2.51544E+06
               5        No Value        No Value        No Value        No Value        No Value        No Value     37.6530E-06    -114.779E-06    -114.779E-06              0.     37.6530E-06    -114.779E-06              0.    -114.779E-06     37.5321E-06    -114.658E-06              0.              0.     23.1055E+06     707.525E+03    -22.7436E+06    -22.7436E+06              0.     707.525E+03    -22.7436E+06              0.    -22.7436E+06     23.4511E+06     7.34536E+06    -23.0811E+06     688.916E+03    -22.7250E+06              0.              0.
               6        No Value        No Value        No Value        No Value        No Value        No Value     39.1694E-06    -125.739E-06    -125.739E-06              0.     39.1694E-06    -125.739E-06              0.    -125.739E-06     37.5321E-06    -124.101E-06              0.     32.7007E-06     25.2129E+06     318.200E+03    -25.0523E+06    -25.0523E+06              0.     318.200E+03    -25.0523E+06              0.    -25.0523E+06     25.3705E+06     8.24469E+06    -25.2084E+06      66.299E+03    -24.8004E+06              0.     2.51544E+06
              31        No Value        No Value        No Value        No Value        No Value        No Value     37.5000E-06    -125.000E-06    -125.000E-06              0.     37.5000E-06    -125.000E-06              0.    -125.000E-06     37.5000E-06    -125.000E-06              0.    -428.058E-15         25.E+06              0.        -25.E+06        -25.E+06              0.              0.        -25.E+06              0.        -25.E+06         25.E+06     8.33333E+06        -25.E+06    -80.9269E-03        -25.E+06              0.    -32.9276E-03
              32        No Value        No Value        No Value        No Value        No Value        No Value     37.5000E-06    -125.000E-06    -125.000E-06              0.     37.5000E-06    -125.000E-06              0.    -125.000E-06     37.5000E-06    -125.000E-06              0.    -127.055E-21         25.E+06              0.        -25.E+06        -25.E+06              0.              0.        -25.E+06              0.        -25.E+06         25.E+06     8.33333E+06        -25.E+06    -68.6554E-03        -25.E+06              0.    -9.83709E-09
              33        No Value        No Value        No Value        No Value        No Value        No Value     37.5000E-06    -125.000E-06    -125.000E-06              0.     37.5000E-06    -125.000E-06              0.    -125.000E-06     37.5000E-06    -125.000E-06              0.     428.058E-15         25.E+06              0.        -25.E+06        -25.E+06              0.              0.        -25.E+06              0.        -25.E+06         25.E+06     8.33333E+06        -25.E+06    -80.9269E-03        -25.E+06              0.     32.9275E-03
              34              0.              0.              0.     124.573E-06    -3.75000E-06    -124.517E-06     37.5000E-06    -125.000E-06    -125.000E-06              0.     37.5000E-06    -125.000E-06              0.    -125.000E-06     37.5000E-06    -125.000E-06              0.    -258.860E-15         25.E+06              0.        -25.E+06        -25.E+06              0.              0.        -25.E+06              0.        -25.E+06         25.E+06     8.33333E+06        -25.E+06     6.09351E-03        -25.E+06              0.    -19.9123E-03
              35              0.              0.              0.     124.517E-06    -26.0033E-15    -124.517E-06     37.5000E-06    -125.000E-06    -125.000E-06              0.     37.5000E-06    -125.000E-06              0.    -125.000E-06     37.5000E-06    -125.000E-06              0.    -237.169E-21         25.E+06              0.        -25.E+06        -25.E+06              0.              0.        -25.E+06              0.        -25.E+06         25.E+06     8.33333E+06        -25.E+06     18.3651E-03        -25.E+06              0.    -18.1608E-09
              36              0.              0.              0.     124.573E-06     3.75000E-06    -124.517E-06     37.5000E-06    -125.000E-06    -125.000E-06              0.     37.5000E-06    -125.000E-06              0.    -125.000E-06     37.5000E-06    -125.000E-06              0.     258.860E-15         25.E+06              0.        -25.E+06        -25.E+06              0.              0.        -25.E+06              0.        -25.E+06         25.E+06     8.33333E+06        -25.E+06     6.09353E-03        -25.E+06              0.     19.9123E-03


  Minimum                     0.    -322.151E+03              0.              0.    -3.75000E-06    -124.517E-06              0.    -127.445E-06    -127.445E-06              0.              0.    -127.445E-06              0.    -127.445E-06              0.    -125.000E-06              0.    -41.2853E-06     22.3979E+06    -7.66811E+06    -27.7894E+06    -27.7894E+06              0.              0.    -27.7894E+06    -7.66811E+06    -27.7894E+06     23.4511E+06     7.34536E+06    -25.2084E+06    -8.18251E+06    -27.2750E+06              0.    -3.17579E+06
         At Node              36               3              36               3              34              36               2               3               3              36               2               3              36               3               3              33              36               1               2               3               3               3              36              36               3               3               3               5               5               6               3               3              36               1

  Maximum            2.34107E+06     322.151E+03     2.34107E+06     124.573E-06     3.75000E-06    -1.32947E-30     39.1694E-06    -114.658E-06    -114.658E-06              0.     39.1694E-06    -114.658E-06              0.    -114.658E-06     37.5321E-06    -114.658E-06              0.     41.2853E-06     25.2129E+06     707.525E+03    -22.7436E+06    -22.7436E+06              0.     707.525E+03    -22.7436E+06              0.    -22.7436E+06     27.7894E+06     11.8192E+06    -19.1956E+06     688.916E+03    -22.7250E+06              0.     3.17579E+06
         At Node               2               1               2              36              36               3               4               2               2              36               4               2              36               2               6               5              36               3               6               5               5               5              36               5               5              36               5               3               3               2               5               5              36               3

           Total     5.07695E+06     552.584E-06          5.E+06     373.663E-06    -26.0033E-15    -373.550E-06     347.679E-06    -1.48580E-03    -1.48580E-03              0.     347.679E-06    -1.48580E-03              0.    -1.48580E-03     337.596E-06    -1.47572E-03              0.     113.686E-15     295.647E+06    -21.5522E+06    -303.627E+06    -303.627E+06              0.     1.34393E+06    -303.627E+06    -22.8961E+06    -303.627E+06     304.971E+06     108.393E+06    -286.596E+06    -23.1034E+06    -302.075E+06              0.    -54.6876E-03


