********************************************************************************
Field Output Report, written Sat Jun 23 00:50:47 2018

Source 1
---------

   ODB: C:/Users/lucas_omena/Dropbox/Mestrado/Disciplinas/MEF/Novos Exemplos/T6_105.odb
   Step: Step_Load
   Frame: Increment      1: Step Time =    1.000

Loc 1 : Nodal values from source 1

Output sorted by column "Node Label".

Field Output reported at nodes for part: PART_GEOMETRY-1
   Computation algorithm: EXTRAPOLATE_COMPUTE_AVERAGE
   Averaged at nodes
   Averaging regions: ODB_REGIONS

      Node Label    RF.Magnitude          RF.RF1          RF.RF2     U.Magnitude            U.U1            U.U2     E.Max. In-P  E.Max. In-P(a)     E.Min. In-P     E.Out-of-Pl     E.Max. Prin  E.Max. Prin(a)     E.Mid. Prin     E.Min. Prin           E.E11           E.E22           E.E33           E.E12         S.Mises     S.Max. In-P  S.Max. In-P(a)     S.Min. In-P     S.Out-of-Pl     S.Max. Prin  S.Max. Prin(a)     S.Mid. Prin     S.Min. Prin        S.Tresca      S.Pressure     S.Third Inv           S.S11           S.S22           S.S33           S.S12
                          @Loc 1          @Loc 1          @Loc 1          @Loc 1          @Loc 1          @Loc 1          @Loc 1          @Loc 1          @Loc 1          @Loc 1          @Loc 1          @Loc 1          @Loc 1          @Loc 1          @Loc 1          @Loc 1          @Loc 1          @Loc 1          @Loc 1          @Loc 1          @Loc 1          @Loc 1          @Loc 1          @Loc 1          @Loc 1          @Loc 1          @Loc 1          @Loc 1          @Loc 1          @Loc 1          @Loc 1          @Loc 1          @Loc 1          @Loc 1
---------------------------------------------------------------------------------------------------------------------------------------------------------------------------------------------------------------------------------------------------------------------------------------------------------------------------------------------------------------------------------------------------------------------------------------------------------------------------------------------------------------------------------------------------------------------------------
               1     748.398E+03     213.451E+03     717.313E+03              0.    -213.451E-33    -717,313E-33     204.683E-09    -117.569E-06    -117.569E-06              0.     204.683E-09    -117,569E-06              0.    -117.569E-06    -4.25990E-06    -113.105E-06              0.    -44.9835E-06     22.9638E+06    -7.70683E+06    -25.8259E+06    -25.8259E+06              0.              0.    -25.8259E+06    -7.70683E+06    -25.8259E+06     25.8259E+06     11.1776E+06    -19.7226E+06    -8.39369E+06    -25.1390E+06              0.    -3.46027E+06
               2     1.14198E+06     34.7000E+03     1.14145E+06              0.    -34.7000E-33    -1.14145E-30    -8.19075E-06    -105.761E-06    -105.761E-06              0.              0.    -105.761E-06    -8.19075E-06    -105.761E-06    -9.52069E-06    -104.431E-06              0.     14.0156E-06     20.8657E+06    -8.77340E+06    -23.7842E+06    -23.7842E+06              0.              0.    -23.7842E+06    -8.77340E+06    -23.7842E+06     23.7842E+06     10.8525E+06    -15.5161E+06    -8.97800E+06    -23.5795E+06              0.     1.07812E+06
               3     732.274E+03    -185.676E+03     708.343E+03              0.     185.676E-33    -708.343E-33     14.0094E-06    -128.477E-06    -128.477E-06              0.     14.0094E-06    -128.477E-06              0.    -128.477E-06     9.17566E-06    -123.643E-06              0.     51.5897E-06     25.0559E+06      -5.392E+06    -27.3129E+06    -27.3129E+06              0.              0.    -27.3129E+06      -5.392E+06    -27.3129E+06     27.3129E+06     10.9016E+06    -23.6972E+06    -6.13565E+06    -26.5693E+06              0.     3.96844E+06
               5        No Value        No Value        No Value        No Value        No Value        No Value     53.1916E-06    -134.483E-06    -134.483E-06              0.     53.1916E-06    -134.483E-06              0.    -134.483E-06     53.1687E-06    -134.460E-06              0.     4.14674E-06     27.5700E+06     2.82345E+06    -26.0496E+06    -26.0496E+06              0.     2.82345E+06    -26.0496E+06              0.    -26.0496E+06     28.8730E+06     7.74205E+06    -27.2418E+06     2.81993E+06    -26.0461E+06              0.     318.980E+03
               6        No Value        No Value        No Value        No Value        No Value        No Value     67.7101E-06    -130.778E-06    -130.778E-06              0.     67.7101E-06    -130.778E-06              0.    -130.778E-06     66.8990E-06    -129.967E-06              0.    -25.3260E-06     27.9381E+06     6.25863E+06    -24.2780E+06    -24.2780E+06              0.     6.25863E+06    -24.2780E+06              0.    -24.2780E+06     30.5366E+06     6.00646E+06    -26.2905E+06     6.13383E+06    -24.1532E+06              0.    -1.94815E+06
              28        No Value        No Value        No Value        No Value        No Value        No Value     37.5000E-06    -125.000E-06    -125.000E-06              0.     37.5000E-06    -125.000E-06              0.    -125.000E-06     37.5000E-06    -125.000E-06              0.    -138.238E-15     25.0000E+06              0.    -25.0000E+06    -25.0000E+06              0.              0.    -25.0000E+06              0.    -25.0000E+06     25.0000E+06     8.33333E+06    -25.0000E+06     38.9980E-03    -25.0000E+06              0.    -10.6337E-03
              29        No Value        No Value        No Value        No Value        No Value        No Value     37.5000E-06    -125.000E-06    -125.000E-06              0.     37.5000E-06    -125.000E-06              0.    -125.000E-06     37.5000E-06    -125.000E-06              0.    -86.0740E-15     25.0000E+06              0.    -25.0000E+06    -25.0000E+06              0.              0.    -25.0000E+06              0.    -25.0000E+06     25.0000E+06     8.33333E+06    -25.0000E+06     58.5398E-03    -25.0000E+06              0.    -6.62107E-03
              31              0.              0.              0.     124.690E-06    -3.80614E-06    -124.632E-06     37.5000E-06    -125.000E-06    -125.000E-06              0.     37.5000E-06    -125.000E-06              0.    -125.000E-06     37.5000E-06    -125.000E-06              0.    -150.140E-15     25.0000E+06              0.    -25.0000E+06    -25.0000E+06              0.              0.    -25.0000E+06              0.    -25.0000E+06     25.0000E+06     8.33333E+06    -25.0000E+06    -11.2308E-03    -25.0000E+06              0.    -11.5492E-03
              32              0.              0.              0.     124.626E-06    -56.1399E-09    -124.626E-06     37.5000E-06    -125.000E-06    -125.000E-06              0.     37.5000E-06    -125.000E-06              0.    -125.000E-06     37.5000E-06    -125.000E-06              0.    -85.3681E-15     25.0000E+06              0.    -25.0000E+06    -25.0000E+06              0.              0.    -25.0000E+06              0.    -25.0000E+06     25.0000E+06     8.33333E+06    -25.0000E+06    -75.6871E-03    -25.0000E+06              0.    -6.56678E-03
              33              0.              0.              0.     124.675E-06     3.69386E-06    -124.620E-06     37.5000E-06    -125.000E-06    -125.000E-06              0.     37.5000E-06    -125.000E-06              0.    -125.000E-06     37.5000E-06    -125.000E-06              0.     399.196E-15     25.0000E+06              0.    -25.0000E+06    -25.0000E+06              0.              0.    -25.0000E+06              0.    -25.0000E+06     25.0000E+06     8.33333E+06    -25.0000E+06    -35.4800E-03    -25.0000E+06              0.     30.7074E-03
              34     1.20938E+06     67.8565E+03     1.20748E+06              0.    -67.8565E-33    -1.20748E-30    -1.78862E-06    -109.950E-06    -109.950E-06              0.              0.    -109.950E-06    -1.78862E-06    -109.950E-06    -3.12757E-06    -108.611E-06              0.    -23.9191E-06     21.5054E+06    -7.64257E+06    -24.2828E+06    -24.2828E+06              0.              0.    -24.2828E+06    -7.64257E+06    -24.2828E+06     24.2828E+06     10.6418E+06    -18.0469E+06    -7.84856E+06    -24.0768E+06              0.    -1.83993E+06
              35        No Value        No Value        No Value        No Value        No Value        No Value     25.5875E-06    -119.290E-06    -119.290E-06              0.     25.5875E-06    -119.290E-06              0.    -119.290E-06     25.5867E-06    -119.289E-06              0.     646.008E-09     23.4900E+06    -2.24164E+06    -24.5305E+06    -24.5305E+06              0.              0.    -24.5305E+06    -2.24164E+06    -24.5305E+06     24.5305E+06     8.92403E+06    -23.2475E+06    -2.24175E+06    -24.5303E+06              0.     49.6929E+03
              36        No Value        No Value        No Value        No Value        No Value        No Value     25.1542E-06    -124.482E-06    -124.482E-06              0.     25.1542E-06    -124.482E-06              0.    -124.482E-06     24.4544E-06    -123.782E-06              0.    -20.4184E-06     24.4708E+06    -2.67922E+06    -25.7002E+06    -25.7002E+06              0.              0.    -25.7002E+06    -2.67922E+06    -25.7002E+06     25.7002E+06     9.45981E+06    -24.1376E+06    -2.78688E+06    -25.5925E+06              0.    -1.57064E+06
              39     1.23233E+06    -130.332E+03     1.22542E+06              0.     130.332E-33    -1.22542E-30    -205.537E-09    -117.923E-06    -117.923E-06              0.              0.    -117.923E-06    -205.537E-09    -117.923E-06    -3.93524E-06    -114.193E-06              0.     41.2378E-06     23.0385E+06    -7.82031E+06    -25.9307E+06    -25.9307E+06              0.              0.    -25.9307E+06    -7.82031E+06    -25.9307E+06     25.9307E+06     11.2503E+06    -19.7020E+06    -8.39411E+06    -25.3569E+06              0.     3.17214E+06
              40        No Value        No Value        No Value        No Value        No Value        No Value     38.2984E-06    -127.066E-06    -127.066E-06              0.     38.2984E-06    -127.066E-06              0.    -127.066E-06     38.0373E-06    -126.805E-06              0.     13.1319E-06     25.4211E+06     39.2622E+03    -25.4014E+06    -25.4014E+06              0.     39.2622E+03    -25.4014E+06              0.    -25.4014E+06     25.4407E+06     8.45405E+06    -25.4210E+06        -909.063    -25.3612E+06              0.     1.01015E+06
              41        No Value        No Value        No Value        No Value        No Value        No Value     24.9400E-06    -117.369E-06    -117.369E-06              0.     24.9400E-06    -117.369E-06              0.    -117.369E-06     24.9264E-06    -117.355E-06              0.     2.77999E-06     23.1051E+06    -2.25728E+06    -24.1509E+06    -24.1509E+06              0.              0.    -24.1509E+06    -2.25728E+06    -24.1509E+06     24.1509E+06     8.80274E+06    -22.8551E+06    -2.25937E+06    -24.1488E+06              0.     213.846E+03
              99        No Value        No Value        No Value        No Value        No Value        No Value     37.5000E-06    -125.000E-06    -125.000E-06              0.     37.5000E-06    -125.000E-06              0.    -125.000E-06     37.5000E-06    -125.000E-06              0.    -22.3723E-15     25.0000E+06              0.    -25.0000E+06    -25.0000E+06              0.              0.    -25.0000E+06              0.    -25.0000E+06     25.0000E+06     8.33333E+06    -25.0000E+06    -13.2858E-03    -25.0000E+06              0.    -1.72095E-03
             100        No Value        No Value        No Value        No Value        No Value        No Value     37.5000E-06    -125.000E-06    -125.000E-06              0.     37.5000E-06    -125.000E-06              0.    -125.000E-06     37.5000E-06    -125.000E-06              0.    -175.152E-15     25.0000E+06              0.    -25.0000E+06    -25.0000E+06              0.              0.    -25.0000E+06              0.    -25.0000E+06     25.0000E+06     8.33333E+06    -25.0000E+06    -13.6323E-03    -25.0000E+06              0.    -13.4732E-03
             101              0.              0.              0.     124.644E-06    -1.93114E-06    -124.629E-06     37.5000E-06    -125.000E-06    -125.000E-06              0.     37.5000E-06    -125.000E-06              0.    -125.000E-06     37.5000E-06    -125.000E-06              0.    -181.103E-15     25.0000E+06              0.    -25.0000E+06    -25.0000E+06              0.              0.    -25.0000E+06              0.    -25.0000E+06     25.0000E+06     8.33333E+06    -25.0000E+06    -38.7467E-03    -25.0000E+06              0.    -13.9310E-03
             102        No Value        No Value        No Value        No Value        No Value        No Value     37.5000E-06    -125.000E-06    -125.000E-06              0.     37.5000E-06    -125.000E-06              0.    -125.000E-06     37.5000E-06    -125.000E-06              0.    -144.189E-15     25.0000E+06              0.    -25.0000E+06    -25.0000E+06              0.              0.    -25.0000E+06              0.    -25.0000E+06     25.0000E+06     8.33333E+06    -25.0000E+06     13.8836E-03    -25.0000E+06              0.    -11.0914E-03
             104        No Value        No Value        No Value        No Value        No Value        No Value     37.5000E-06    -125.000E-06    -125.000E-06              0.     37.5000E-06    -125.000E-06              0.    -125.000E-06     37.5000E-06    -125.000E-06              0.     156.561E-15     25.0000E+06              0.    -25.0000E+06    -25.0000E+06              0.              0.    -25.0000E+06              0.    -25.0000E+06     25.0000E+06     8.33333E+06    -25.0000E+06     11.5299E-03    -25.0000E+06              0.     12.0431E-03
             105              0.              0.              0.     124.637E-06     1.81886E-06    -124.623E-06     37.5000E-06    -125.000E-06    -125.000E-06              0.     37.5000E-06    -125.000E-06              0.    -125.000E-06     37.5000E-06    -125.000E-06              0.     220.263E-15     25.0000E+06              0.    -25.0000E+06    -25.0000E+06              0.              0.    -25.0000E+06              0.    -25.0000E+06     25.0000E+06     8.33333E+06    -25.0000E+06    -60.2957E-03    -25.0000E+06              0.     16.9433E-03


  Minimum                     0.    -185.676E+03              0.              0.    -3.80614E-06    -124.632E-06    -8.19075E-06    -134.483E-06    -134.483E-06              0.              0.    -134.483E-06    -8.19075E-06    -134.483E-06    -9.52069E-06    -134.460E-06              0.    -44.9835E-06     20.8657E+06    -8.77340E+06    -27.3129E+06    -27.3129E+06              0.              0.    -27.3129E+06    -8.77340E+06    -27.3129E+06     23.7842E+06     6.00646E+06    -27.2418E+06    -8.97800E+06    -26.5693E+06              0.    -3.46027E+06
         At Node             105               3             105              39              31              31               2               5               5             105              39               5               2               5               2               5             105               1               2               2               3               3             105             105               3               2               3               2               6               5               2               3             105               1

  Maximum            1.23233E+06     213.451E+03     1.22542E+06     124.690E-06     3.69386E-06    -708.343E-33     67.7101E-06    -105.761E-06    -105.761E-06              0.     67.7101E-06    -105.761E-06              0.    -105.761E-06     66.8990E-06    -104.431E-06              0.     51.5897E-06     27.9381E+06     6.25863E+06    -23.7842E+06    -23.7842E+06              0.     6.25863E+06    -23.7842E+06              0.    -23.7842E+06     30.5366E+06     11.2503E+06    -15.5161E+06     6.13383E+06    -23.5795E+06              0.     3.96844E+06
         At Node              39               1              39              31              33               3               6               2               2             105               6               2             105               2               6               2             105               3               6               6               2               2             105               6               2             105               2               6              39               2               6               2             105               3

           Total     5.06436E+06     3.90625E-03     5.00000E+06     623.273E-06    -280.699E-09    -623.132E-06     651.411E-06    -2.70815E-03    -2.70815E-03              0.     661.596E-06    -2.70815E-03    -10.1849E-06    -2.70815E-03     633.905E-06    -2.69064E-03              0.     12.9009E-06     540.424E+06    -35.3919E+06    -552.247E+06    -552.247E+06              0.     9.12135E+06    -552.247E+06    -44.5132E+06    -552.247E+06     561.368E+06     195.880E+06    -520.878E+06    -38.0852E+06    -549.554E+06              0.     992.378E+03


