********************************************************************************
Field Output Report, written Sat Jun 23 00:51:47 2018

Source 1
---------

   ODB: C:/Users/lucas_omena/Dropbox/Mestrado/Disciplinas/MEF/Novos Exemplos/T6_120.odb
   Step: Step_Load
   Frame: Increment      1: Step Time =    1.000

Loc 1 : Nodal values from source 1

Output sorted by column "Node Label".

Field Output reported at nodes for part: PART_GEOMETRY-1
   Computation algorithm: EXTRAPOLATE_COMPUTE_AVERAGE
   Averaged at nodes
   Averaging regions: ODB_REGIONS

      Node Label    RF.Magnitude          RF.RF1          RF.RF2     U.Magnitude            U.U1            U.U2     E.Max. In-P  E.Max. In-P(a)     E.Min. In-P     E.Out-of-Pl     E.Max. Prin  E.Max. Prin(a)     E.Mid. Prin     E.Min. Prin           E.E11           E.E22           E.E33           E.E12         S.Mises     S.Max. In-P  S.Max. In-P(a)     S.Min. In-P     S.Out-of-Pl     S.Max. Prin  S.Max. Prin(a)     S.Mid. Prin     S.Min. Prin        S.Tresca      S.Pressure     S.Third Inv           S.S11           S.S22           S.S33           S.S12
                          @Loc 1          @Loc 1          @Loc 1          @Loc 1          @Loc 1          @Loc 1          @Loc 1          @Loc 1          @Loc 1          @Loc 1          @Loc 1          @Loc 1          @Loc 1          @Loc 1          @Loc 1          @Loc 1          @Loc 1          @Loc 1          @Loc 1          @Loc 1          @Loc 1          @Loc 1          @Loc 1          @Loc 1          @Loc 1          @Loc 1          @Loc 1          @Loc 1          @Loc 1          @Loc 1          @Loc 1          @Loc 1          @Loc 1          @Loc 1
---------------------------------------------------------------------------------------------------------------------------------------------------------------------------------------------------------------------------------------------------------------------------------------------------------------------------------------------------------------------------------------------------------------------------------------------------------------------------------------------------------------------------------------------------------------------------------
               1     751.493E+03     235.327E+03     713.697E+03              0.    -235.327E-33    -713.697E-33    -800.177E-09    -117.204E-06    -117.204E-06              0.              0.    -117.204E-06    -800.177E-09    -117.204E-06    -4.05314E-06    -113.951E-06              0.    -38.3706E-06     22.9067E+06    -7.90361E+06    -25.8119E+06    -25.8119E+06              0.              0.    -25.8119E+06    -7.90361E+06    -25.8119E+06     25.8119E+06     11.2385E+06    -19.4638E+06    -8.40407E+06    -25.3115E+06              0.    -2.95159E+06
               2     1.13086E+06     40.9272E+03     1.13012E+06              0.    -40.9272E-33    -1.13012E-30    -7.50389E-06    -107.778E-06    -107.778E-06              0.              0.    -107.778E-06    -7.50389E-06    -107.778E-06    -8.94709E-06    -106.335E-06              0.     13.9882E-06     21.2228E+06    -8.75546E+06    -24.1823E+06    -24.1823E+06              0.              0.    -24.1823E+06    -8.75546E+06    -24.1823E+06     24.1823E+06     10.9792E+06    -16.2043E+06    -8.97749E+06    -23.9603E+06              0.     1.07601E+06
               3     734.208E+03    -207.684E+03     704.222E+03              0.     207.684E-33    -704.223E-33     10.5553E-06    -123.822E-06    -123.822E-06              0.     10.5553E-06    -123.822E-06              0.    -123.822E-06     6.62908E-06    -119.896E-06              0.     45.2626E-06     24.1323E+06    -5.84427E+06    -26.5177E+06    -26.5177E+06              0.              0.    -26.5177E+06    -5.84427E+06    -26.5177E+06     26.5177E+06     10.7873E+06    -22.4558E+06    -6.44830E+06    -25.9137E+06              0.     3.48174E+06
               5        No Value        No Value        No Value        No Value        No Value        No Value     60.2674E-06    -137.090E-06    -137.090E-06              0.     60.2674E-06    -137.090E-06              0.    -137.090E-06     60.2469E-06    -137.069E-06              0.     4.02441E-06     28.4932E+06     4.20668E+06     -26.156E+06     -26.156E+06              0.     4.20668E+06     -26.156E+06              0.     -26.156E+06     30.3627E+06     7.31644E+06    -27.7817E+06     4.20352E+06    -26.1528E+06              0.     309.570E+03
               6        No Value        No Value        No Value        No Value        No Value        No Value     71.1383E-06    -131.644E-06    -131.644E-06              0.     71.1383E-06    -131.644E-06              0.    -131.644E-06     69.9581E-06    -130.463E-06              0.    -30.8507E-06     28.3666E+06     6.95500E+06    -24.2422E+06    -24.2422E+06              0.     6.95500E+06    -24.2422E+06              0.    -24.2422E+06     31.1972E+06     5.76242E+06    -26.3438E+06     6.77342E+06    -24.0607E+06              0.    -2.37313E+06
              22        No Value        No Value        No Value        No Value        No Value        No Value     37.5000E-06    -125.000E-06    -125.000E-06              0.     37.5000E-06    -125.000E-06              0.    -125.000E-06     37.5000E-06    -125.000E-06              0.     55.7918E-15     25.0000E+06              0.    -25.0000E+06    -25.0000E+06              0.              0.    -25.0000E+06              0.    -25.0000E+06     25.0000E+06     8.33333E+06    -25.0000E+06     64.6179E-03    -25.0000E+06              0.     4.29167E-03
              23        No Value        No Value        No Value        No Value        No Value        No Value     37.5000E-06    -125.000E-06    -125.000E-06              0.     37.5000E-06    -125.000E-06              0.    -125.000E-06     37.5000E-06    -125.000E-06              0.    -380.591E-15     25.0000E+06              0.    -25.0000E+06    -25.0000E+06              0.              0.    -25.0000E+06              0.    -25.0000E+06     25.0000E+06     8.33333E+06    -25.0000E+06     68.6948E-03    -25.0000E+06              0.    -29.2762E-03
              25              0.              0.              0.     124.678E-06    -3.93266E-06    -124.616E-06     37.5000E-06    -125.000E-06    -125.000E-06              0.     37.5000E-06    -125.000E-06              0.    -125.000E-06     37.5000E-06    -125.000E-06              0.    -321.289E-15     25.0000E+06              0.    -25.0000E+06    -25.0000E+06              0.              0.    -25.0000E+06              0.    -25.0000E+06     25.0000E+06     8.33333E+06    -25.0000E+06    -21.2443E-03    -25.0000E+06              0.    -24.7146E-03
              26              0.              0.              0.     124.599E-06    -182.665E-09    -124.599E-06     37.5000E-06    -125.000E-06    -125.000E-06              0.     37.5000E-06    -125.000E-06              0.    -125.000E-06     37.5000E-06    -125.000E-06              0.    -157.912E-15     25.0000E+06              0.    -25.0000E+06    -25.0000E+06              0.              0.    -25.0000E+06              0.    -25.0000E+06     25.0000E+06     8.33333E+06    -25.0000E+06    -98.4105E-03    -25.0000E+06              0.    -12.1470E-03
              27              0.              0.              0.     124.633E-06     3.56734E-06    -124.582E-06     37.5000E-06    -125.000E-06    -125.000E-06              0.     37.5000E-06    -125.000E-06              0.    -125.000E-06     37.5000E-06    -125.000E-06              0.     761.264E-15     25.0000E+06              0.    -25.0000E+06    -25.0000E+06              0.              0.    -25.0000E+06              0.    -25.0000E+06     25.0000E+06     8.33333E+06    -25.0000E+06    -45.1348E-03    -25.0000E+06              0.     58.5588E-03
              28     1.21787E+06     57.6854E+03     1.21651E+06              0.    -57.6855E-33    -1.21651E-30    -2.44194E-06    -110.255E-06    -110.255E-06              0.              0.    -110.255E-06    -2.44194E-06    -110.255E-06    -3.54394E-06    -109.153E-06              0.    -21.6883E-06     21.5761E+06    -7.80622E+06    -24.3928E+06    -24.3928E+06              0.              0.    -24.3928E+06    -7.80622E+06    -24.3928E+06     24.3928E+06     10.7330E+06    -17.9596E+06    -7.97576E+06    -24.2233E+06              0.    -1.66833E+06
              29        No Value        No Value        No Value        No Value        No Value        No Value     28.6065E-06    -120.712E-06    -120.712E-06              0.     28.6065E-06    -120.712E-06              0.    -120.712E-06     28.6061E-06    -120.712E-06              0.    -490.751E-09     23.8520E+06    -1.67191E+06    -24.6440E+06    -24.6440E+06              0.              0.    -24.6440E+06    -1.67191E+06    -24.6440E+06     24.6440E+06     8.77197E+06    -23.7197E+06    -1.67197E+06    -24.6439E+06              0.    -37.7501E+03
              30        No Value        No Value        No Value        No Value        No Value        No Value     28.5754E-06    -125.989E-06    -125.989E-06              0.     28.5754E-06    -125.989E-06              0.    -125.989E-06     28.0969E-06    -125.510E-06              0.    -17.1731E-06     24.8545E+06    -2.02666E+06    -25.8058E+06    -25.8058E+06              0.              0.    -25.8058E+06    -2.02666E+06    -25.8058E+06     25.8058E+06     9.27748E+06    -24.6676E+06    -2.10027E+06    -25.7322E+06              0.    -1.32101E+06
              33     1.24189E+06    -126.256E+03     1.23545E+06              0.     126.256E-33    -1.23545E-30    -739.925E-09    -117.481E-06    -117.481E-06              0.              0.    -117.481E-06    -739.925E-09    -117.481E-06    -4.11518E-06    -114.106E-06              0.     39.1224E-06     22.9599E+06    -7.90864E+06    -25.8689E+06    -25.8689E+06              0.              0.    -25.8689E+06    -7.90864E+06    -25.8689E+06     25.8689E+06     11.2592E+06    -19.5223E+06    -8.42791E+06    -25.3496E+06              0.     3.00941E+06
              34        No Value        No Value        No Value        No Value        No Value        No Value     38.3730E-06    -125.259E-06    -125.259E-06              0.     38.3730E-06    -125.259E-06              0.    -125.259E-06     38.2936E-06    -125.180E-06              0.     7.20591E-06     25.0872E+06     174.771E+03    -24.9994E+06    -24.9994E+06              0.     174.771E+03    -24.9994E+06              0.    -24.9994E+06     25.1742E+06     8.27488E+06    -25.0859E+06     162.560E+03    -24.9872E+06              0.     554.301E+03
              35        No Value        No Value        No Value        No Value        No Value        No Value     27.5512E-06    -119.392E-06    -119.392E-06              0.     27.5512E-06    -119.392E-06              0.    -119.392E-06     27.5493E-06    -119.390E-06              0.     1.06574E-06     23.5676E+06    -1.81676E+06    -24.4234E+06    -24.4234E+06              0.              0.    -24.4234E+06    -1.81676E+06    -24.4234E+06     24.4234E+06     8.74671E+06    -23.4092E+06    -1.81706E+06    -24.4231E+06              0.     81.9802E+03
              79        No Value        No Value        No Value        No Value        No Value        No Value     37.5000E-06    -125.000E-06    -125.000E-06              0.     37.5000E-06    -125.000E-06              0.    -125.000E-06     37.5000E-06    -125.000E-06              0.    -114.051E-15     25.0000E+06              0.    -25.0000E+06    -25.0000E+06              0.              0.    -25.0000E+06              0.    -25.0000E+06     25.0000E+06     8.33333E+06    -25.0000E+06    -19.7974E-03    -25.0000E+06              0.    -8.77312E-03
              80        No Value        No Value        No Value        No Value        No Value        No Value     37.5000E-06    -125.000E-06    -125.000E-06              0.     37.5000E-06    -125.000E-06              0.    -125.000E-06     37.5000E-06    -125.000E-06              0.    -206.260E-15     25.0000E+06              0.    -25.0000E+06    -25.0000E+06              0.              0.    -25.0000E+06              0.    -25.0000E+06     25.0000E+06     8.33333E+06    -25.0000E+06    -11.9568E-03    -25.0000E+06              0.    -15.8662E-03
              81              0.              0.              0.     124.624E-06    -2.05766E-06    -124.607E-06     37.5000E-06    -125.000E-06    -125.000E-06              0.     37.5000E-06    -125.000E-06              0.    -125.000E-06     37.5000E-06    -125.000E-06              0.    -394.801E-15     25.0000E+06              0.    -25.0000E+06    -25.0000E+06              0.              0.    -25.0000E+06              0.    -25.0000E+06     25.0000E+06     8.33333E+06    -25.0000E+06    -54.8879E-03    -25.0000E+06              0.    -30.3693E-03
              82        No Value        No Value        No Value        No Value        No Value        No Value     37.5000E-06    -125.000E-06    -125.000E-06              0.     37.5000E-06    -125.000E-06              0.    -125.000E-06     37.5000E-06    -125.000E-06              0.    -132.749E-15     25.0000E+06              0.    -25.0000E+06    -25.0000E+06              0.              0.    -25.0000E+06              0.    -25.0000E+06     25.0000E+06     8.33333E+06    -25.0000E+06     21.6868E-03    -25.0000E+06              0.    -10.2114E-03
              84        No Value        No Value        No Value        No Value        No Value        No Value     37.5000E-06    -125.000E-06    -125.000E-06              0.     37.5000E-06    -125.000E-06              0.    -125.000E-06     37.5000E-06    -125.000E-06              0.     190.337E-15     25.0000E+06              0.    -25.0000E+06    -25.0000E+06              0.              0.    -25.0000E+06              0.    -25.0000E+06     25.0000E+06     8.33333E+06    -25.0000E+06     11.7800E-03    -25.0000E+06              0.     14.6413E-03
              85              0.              0.              0.     124.602E-06     1.69234E-06    -124.590E-06     37.5000E-06    -125.000E-06    -125.000E-06              0.     37.5000E-06    -125.000E-06              0.    -125.000E-06     37.5000E-06    -125.000E-06              0.     456.877E-15     25.0000E+06              0.    -25.0000E+06    -25.0000E+06              0.              0.    -25.0000E+06              0.    -25.0000E+06     25.0000E+06     8.33333E+06    -25.0000E+06    -76.7122E-03    -25.0000E+06              0.     35.1444E-03


  Minimum                     0.    -207.684E+03              0.              0.    -3.93266E-06    -124.616E-06    -7.50389E-06    -137.090E-06    -137.090E-06              0.              0.    -137.090E-06    -7.50389E-06    -137.090E-06    -8.94709E-06    -137.069E-06              0.    -38.3706E-06     21.2228E+06    -8.75546E+06    -26.5177E+06    -26.5177E+06              0.              0.    -26.5177E+06    -8.75546E+06    -26.5177E+06     24.1823E+06     5.76242E+06    -27.7817E+06    -8.97749E+06    -26.1528E+06              0.    -2.95159E+06
         At Node              85               3              85              33              25              25               2               5               5              85              33               5               2               5               2               5              85               1               2               2               3               3              85              85               3               2               3               2               6               5               2               5              85               1

  Maximum            1.24189E+06     235.327E+03     1.23545E+06     124.678E-06     3.56734E-06    -704.223E-33     71.1383E-06    -107.778E-06    -107.778E-06              0.     71.1383E-06    -107.778E-06              0.    -107.778E-06     69.9581E-06    -106.335E-06              0.     45.2626E-06     28.4932E+06     6.95500E+06    -24.1823E+06    -24.1823E+06              0.     6.95500E+06    -24.1823E+06              0.    -24.1823E+06     31.1972E+06     11.2592E+06    -16.2043E+06     6.77342E+06    -23.9603E+06              0.     3.48174E+06
         At Node              33               1              33              25              27               3               6               2               2              85               6               2              85               2               6               2              85               3               5               6               2               2              85               6               2              85               2               6              33               2               6               2              85               3

           Total     5.07632E+06    -3.90625E-03     5.00000E+06     623.136E-06    -913.322E-09    -622.994E-06     666.081E-06    -2.71163E-03    -2.71163E-03              0.     677.567E-06    -2.71163E-03    -11.4859E-06    -2.71163E-03     651.220E-06    -2.69677E-03              0.     2.09572E-06     542.019E+06    -32.3971E+06    -552.044E+06    -552.044E+06              0.     11.3364E+06    -552.044E+06    -43.7335E+06    -552.044E+06     563.381E+06     194.814E+06    -521.614E+06    -34.6833E+06    -549.758E+06              0.     161.210E+03


