********************************************************************************
Field Output Report, written Sat Jun 23 00:37:04 2018

Source 1
---------

   ODB: C:/Users/lucas_omena/Dropbox/Mestrado/Disciplinas/MEF/Novos Exemplos/T6_35.odb
   Step: Step_Load
   Frame: Increment      1: Step Time =    1.000

Loc 1 : Nodal values from source 1

Output sorted by column "Node Label".

Field Output reported at nodes for part: PART_GEOMETRY-1
   Computation algorithm: EXTRAPOLATE_COMPUTE_AVERAGE
   Averaged at nodes
   Averaging regions: ODB_REGIONS

      Node Label    RF.Magnitude          RF.RF1          RF.RF2     U.Magnitude            U.U1            U.U2     E.Max. In-P  E.Max. In-P(a)     E.Min. In-P     E.Out-of-Pl     E.Max. Prin  E.Max. Prin(a)     E.Mid. Prin     E.Min. Prin           E.E11           E.E22           E.E33           E.E12         S.Mises     S.Max. In-P  S.Max. In-P(a)     S.Min. In-P     S.Out-of-Pl     S.Max. Prin  S.Max. Prin(a)     S.Mid. Prin     S.Min. Prin        S.Tresca      S.Pressure     S.Third Inv           S.S11           S.S22           S.S33           S.S12
                          @Loc 1          @Loc 1          @Loc 1          @Loc 1          @Loc 1          @Loc 1          @Loc 1          @Loc 1          @Loc 1          @Loc 1          @Loc 1          @Loc 1          @Loc 1          @Loc 1          @Loc 1          @Loc 1          @Loc 1          @Loc 1          @Loc 1          @Loc 1          @Loc 1          @Loc 1          @Loc 1          @Loc 1          @Loc 1          @Loc 1          @Loc 1          @Loc 1          @Loc 1          @Loc 1          @Loc 1          @Loc 1          @Loc 1          @Loc 1
---------------------------------------------------------------------------------------------------------------------------------------------------------------------------------------------------------------------------------------------------------------------------------------------------------------------------------------------------------------------------------------------------------------------------------------------------------------------------------------------------------------------------------------------------------------------------------
               1     311.728E+03     90.8248E+03     298.204E+03              0.    -90.8248E-33    -298.204E-33     12.7829E-06    -141.785E-06    -141.785E-06              0.     12.7829E-06    -141.785E-06              0.    -141.785E-06     913.145E-09    -129.915E-06              0.    -82.3114E-06     27.6356E+06    -6.53903E+06    -30.3187E+06    -30.3187E+06              0.              0.    -30.3187E+06    -6.53903E+06    -30.3187E+06     30.3187E+06     12.2859E+06    -25.8075E+06    -8.36515E+06    -28.4926E+06              0.    -6.33165E+06
               2     403.780E+03     54.1663E+03     400.130E+03              0.    -54.1663E-33    -400.130E-33     622.319E-09    -111.880E-06    -111.880E-06              0.     1.00151E-06    -111.880E-06    -379.194E-09    -111.880E-06    -3.75434E-06    -107.503E-06              0.    -43.2845E-06     21.8487E+06    -7.23994E+06     -24.548E+06     -24.548E+06              0.              0.     -24.548E+06    -7.23994E+06     -24.548E+06      24.548E+06     10.5960E+06    -18.8432E+06    -7.91327E+06    -23.8747E+06              0.    -3.32957E+06
               3     388.736E+03     26.5671E+03     387.827E+03              0.    -26.5671E-33    -387.827E-33    -824.267E-09    -106.858E-06    -106.858E-06              0.              0.    -106.858E-06    -824.267E-09    -106.858E-06    -1.65928E-06    -106.023E-06              0.    -18.6598E-06     20.8862E+06    -7.22672E+06    -23.5396E+06    -23.5396E+06              0.              0.    -23.5396E+06    -7.22672E+06    -23.5396E+06     23.5396E+06     10.2554E+06    -17.7253E+06    -7.35518E+06    -23.4111E+06              0.    -1.43537E+06
               4     386.459E+03     2.67099E+03     386.450E+03              0.    -2.67099E-33    -386.450E-33    -1.61020E-06    -105.644E-06    -105.644E-06              0.              0.    -105.644E-06    -1.61020E-06    -105.644E-06    -1.61691E-06    -105.638E-06              0.     720.893E-09     20.6628E+06    -7.31946E+06    -23.3247E+06    -23.3247E+06              0.              0.    -23.3247E+06    -7.31946E+06    -23.3247E+06     23.3247E+06     10.2147E+06    -17.3559E+06    -7.32049E+06    -23.3237E+06              0.     55.4533E+03
               5      388.09E+03    -20.3981E+03     387.554E+03              0.     20.3981E-33    -387.554E-33    -1.63473E-06    -106.475E-06    -106.475E-06              0.     541.187E-09    -106.475E-06    -2.17592E-06    -106.475E-06    -2.74783E-06    -105.362E-06              0.     21.2366E-06     20.8309E+06    -7.37964E+06    -23.5090E+06    -23.5090E+06              0.              0.    -23.5090E+06    -7.37964E+06    -23.5090E+06     23.5090E+06     10.2962E+06    -17.4643E+06    -7.55088E+06    -23.3377E+06              0.     1.63358E+06
               6     395.649E+03    -38.8301E+03     393.739E+03              0.     38.8301E-33    -393.739E-33     342.442E-09    -117.959E-06    -117.959E-06              0.     3.10906E-06    -117.959E-06    -2.76662E-06    -117.959E-06    -11.1718E-06    -106.444E-06              0.     64.8534E-06     23.0666E+06    -7.70223E+06    -25.9024E+06    -25.9024E+06              0.              0.    -25.9024E+06    -7.70223E+06    -25.9024E+06     25.9024E+06     11.2015E+06    -19.6918E+06    -9.47365E+06    -24.1310E+06              0.     4.98872E+06
               7     301.116E+03    -83.7160E+03     289.244E+03              0.     83.7160E-33    -289.244E-33     24.3744E-06    -163.225E-06    -163.225E-06              0.     24.3744E-06    -163.225E-06              0.    -163.225E-06     16.2331E-06    -155.084E-06              0.     76.4468E-06     31.9093E+06    -5.40511E+06    -34.2666E+06    -34.2666E+06              0.              0.    -34.2666E+06    -5.40511E+06    -34.2666E+06     34.2666E+06     13.2239E+06    -30.8540E+06    -6.65762E+06    -33.0141E+06              0.     5.88053E+06
               9        No Value        No Value        No Value        No Value        No Value        No Value     42.6706E-06    -129.466E-06    -129.466E-06              0.     42.6706E-06    -129.466E-06              0.    -129.466E-06     42.2427E-06    -129.039E-06              0.    -17.1436E-06     26.0719E+06     841.908E+03    -25.6407E+06    -25.6407E+06              0.     841.908E+03    -25.6407E+06              0.    -25.6407E+06     26.4826E+06     8.26627E+06    -26.0413E+06     776.076E+03    -25.5749E+06              0.    -1.31874E+06
              10        No Value        No Value        No Value        No Value        No Value        No Value     24.8493E-06    -121.223E-06    -121.223E-06              0.     24.8493E-06    -121.223E-06              0.    -121.223E-06     24.5111E-06    -120.885E-06              0.    -14.0416E-06     23.8394E+06    -2.53136E+06    -25.0041E+06    -25.0041E+06              0.              0.    -25.0041E+06    -2.53136E+06    -25.0041E+06     25.0041E+06     9.17849E+06    -23.5342E+06    -2.58340E+06    -24.9521E+06              0.    -1.08013E+06
              11        No Value        No Value        No Value        No Value        No Value        No Value     20.6374E-06    -118.758E-06    -118.758E-06              0.     20.6374E-06    -118.758E-06              0.    -118.758E-06     20.6374E-06    -118.758E-06              0.    -119.209E-09     23.2684E+06    -3.29454E+06    -24.7400E+06    -24.7400E+06              0.              0.    -24.7400E+06    -3.29454E+06    -24.7400E+06     24.7400E+06     9.34486E+06    -22.7347E+06    -3.29454E+06    -24.7400E+06              0.    -9.16987E+03
              12        No Value        No Value        No Value        No Value        No Value        No Value     22.4440E-06    -120.507E-06    -120.507E-06              0.     22.4440E-06    -120.507E-06              0.    -120.507E-06     22.0813E-06    -120.144E-06              0.     14.3835E-06     23.6433E+06    -3.01278E+06    -25.0053E+06    -25.0053E+06              0.              0.    -25.0053E+06    -3.01278E+06    -25.0053E+06     25.0053E+06     9.33935E+06    -23.2055E+06    -3.06858E+06    -24.9495E+06              0.     1.10642E+06
              13        No Value        No Value        No Value        No Value        No Value        No Value     32.6565E-06    -128.335E-06    -128.335E-06              0.     32.6565E-06    -128.335E-06              0.    -128.335E-06     31.5951E-06    -127.274E-06              0.     26.0565E-06     25.4345E+06    -1.28441E+06    -26.0524E+06    -26.0524E+06              0.              0.    -26.0524E+06    -1.28441E+06    -26.0524E+06     26.0524E+06     9.11225E+06    -25.3614E+06    -1.44769E+06    -25.8891E+06              0.     2.00435E+06
              14        No Value        No Value        No Value        No Value        No Value        No Value     70.4456E-06    -133.817E-06    -133.817E-06              0.     70.4456E-06    -133.817E-06              0.    -133.817E-06     69.3422E-06    -132.714E-06              0.    -29.9445E-06     28.6812E+06     6.65944E+06    -24.7656E+06    -24.7656E+06              0.     6.65944E+06    -24.7656E+06              0.    -24.7656E+06     31.4251E+06     6.03540E+06    -26.8578E+06     6.48968E+06    -24.5959E+06              0.    -2.30343E+06
             197        No Value        No Value        No Value        No Value        No Value        No Value     37.5000E-06    -125.000E-06    -125.000E-06              0.     37.5000E-06    -125.000E-06              0.    -125.000E-06     37.5000E-06    -125.000E-06              0.    -31.3801E-15     25.0000E+06              0.    -25.0000E+06    -25.0000E+06              0.              0.    -25.0000E+06              0.    -25.0000E+06     25.0000E+06     8.33333E+06    -25.0000E+06    -149.914E-06    -25.0000E+06              0.    -2.41385E-03
             198        No Value        No Value        No Value        No Value        No Value        No Value     37.5000E-06    -125.000E-06    -125.000E-06              0.     37.5000E-06    -125.000E-06              0.    -125.000E-06     37.5000E-06    -125.000E-06              0.    -108.656E-15     25.0000E+06              0.    -25.0000E+06    -25.0000E+06              0.              0.    -25.0000E+06              0.    -25.0000E+06     25.0000E+06     8.33333E+06    -25.0000E+06     328.157E-06    -25.0000E+06              0.    -8.35814E-03
             199        No Value        No Value        No Value        No Value        No Value        No Value     37.5000E-06    -125.000E-06    -125.000E-06              0.     37.5000E-06    -125.000E-06              0.    -125.000E-06     37.5000E-06    -125.000E-06              0.    -72.5135E-15     25.0000E+06              0.    -25.0000E+06    -25.0000E+06              0.              0.    -25.0000E+06              0.    -25.0000E+06     25.0000E+06     8.33333E+06    -25.0000E+06     344.446E-06    -25.0000E+06              0.    -5.57796E-03
             200        No Value        No Value        No Value        No Value        No Value        No Value     37.5000E-06    -125.000E-06    -125.000E-06              0.     37.5000E-06    -125.000E-06              0.    -125.000E-06     37.5000E-06    -125.000E-06              0.     9.75646E-15     25.0000E+06              0.    -25.0000E+06    -25.0000E+06              0.              0.    -25.0000E+06              0.    -25.0000E+06     25.0000E+06     8.33333E+06    -25.0000E+06    -1.50949E-03    -25.0000E+06              0.     750.497E-06
             201        No Value        No Value        No Value        No Value        No Value        No Value     37.5000E-06    -125.000E-06    -125.000E-06              0.     37.5000E-06    -125.000E-06              0.    -125.000E-06     37.5000E-06    -125.000E-06              0.     89.0574E-15     25.0000E+06              0.    -25.0000E+06    -25.0000E+06              0.              0.    -25.0000E+06              0.    -25.0000E+06     25.0000E+06     8.33333E+06    -25.0000E+06    -4.36653E-03    -25.0000E+06              0.     6.85057E-03
             202        No Value        No Value        No Value        No Value        No Value        No Value     37.5000E-06    -125.000E-06    -125.000E-06              0.     37.5000E-06    -125.000E-06              0.    -125.000E-06     37.5000E-06    -125.000E-06              0.     103.835E-15     25.0000E+06              0.    -25.0000E+06    -25.0000E+06              0.              0.    -25.0000E+06              0.    -25.0000E+06     25.0000E+06     8.33333E+06    -25.0000E+06    -4.49207E-03    -25.0000E+06              0.     7.98733E-03
             204              0.              0.              0.     124.739E-06    -3.75789E-06    -124.682E-06     37.5000E-06    -125.000E-06    -125.000E-06              0.     37.5000E-06    -125.000E-06              0.    -125.000E-06     37.5000E-06    -125.000E-06              0.     16.5149E-15     25.0000E+06              0.    -25.0000E+06    -25.0000E+06              0.              0.    -25.0000E+06              0.    -25.0000E+06     25.0000E+06     8.33333E+06    -25.0000E+06     1.15974E-03    -25.0000E+06              0.     1.27038E-03
             205              0.              0.              0.     124.707E-06    -2.50789E-06    -124.682E-06     37.5000E-06    -125.000E-06    -125.000E-06              0.     37.5000E-06    -125.000E-06              0.    -125.000E-06     37.5000E-06    -125.000E-06              0.    -20.3691E-15     25.0000E+06              0.    -25.0000E+06    -25.0000E+06              0.              0.    -25.0000E+06              0.    -25.0000E+06     25.0000E+06     8.33333E+06    -25.0000E+06    -5.53598E-03    -25.0000E+06              0.    -1.56685E-03
             206              0.              0.              0.     124.687E-06    -1.25789E-06    -124.681E-06     37.5000E-06    -125.000E-06    -125.000E-06              0.     37.5000E-06    -125.000E-06              0.    -125.000E-06     37.5000E-06    -125.000E-06              0.    -7.41053E-15     25.0000E+06              0.    -25.0000E+06    -25.0000E+06              0.              0.    -25.0000E+06              0.    -25.0000E+06     25.0000E+06     8.33333E+06    -25.0000E+06    -18.1145E-03    -25.0000E+06              0.    -570.041E-06
             207              0.              0.              0.     124.681E-06    -7.89394E-09    -124.681E-06     37.5000E-06    -125.000E-06    -125.000E-06              0.     37.5000E-06    -125.000E-06              0.    -125.000E-06     37.5000E-06    -125.000E-06              0.     7.38997E-15     25.0000E+06              0.    -25.0000E+06    -25.0000E+06              0.              0.    -25.0000E+06              0.    -25.0000E+06     25.0000E+06     8.33333E+06    -25.0000E+06    -23.6715E-03    -25.0000E+06              0.     568.459E-06
             208              0.              0.              0.     124.686E-06     1.24211E-06    -124.680E-06     37.5000E-06    -125.000E-06    -125.000E-06              0.     37.5000E-06    -125.000E-06              0.    -125.000E-06     37.5000E-06    -125.000E-06              0.     16.7669E-15     25.0000E+06              0.    -25.0000E+06    -25.0000E+06              0.              0.    -25.0000E+06              0.    -25.0000E+06     25.0000E+06     8.33333E+06    -25.0000E+06    -18.6837E-03    -25.0000E+06              0.     1.28976E-03
             209              0.              0.              0.     124.705E-06     2.49211E-06    -124.680E-06     37.5000E-06    -125.000E-06    -125.000E-06              0.     37.5000E-06    -125.000E-06              0.    -125.000E-06     37.5000E-06    -125.000E-06              0.     16.5649E-15     25.0000E+06              0.    -25.0000E+06    -25.0000E+06              0.              0.    -25.0000E+06              0.    -25.0000E+06     25.0000E+06     8.33333E+06    -25.0000E+06    -6.19249E-03    -25.0000E+06              0.     1.27422E-03
             210              0.              0.              0.     124.735E-06     3.74211E-06    -124.679E-06     37.5000E-06    -125.000E-06    -125.000E-06              0.     37.5000E-06    -125.000E-06              0.    -125.000E-06     37.5000E-06    -125.000E-06              0.    -23.6628E-15     25.0000E+06              0.    -25.0000E+06    -25.0000E+06              0.              0.    -25.0000E+06              0.    -25.0000E+06     25.0000E+06     8.33333E+06    -25.0000E+06     1.81531E-03    -25.0000E+06              0.    -1.82021E-03
             211     437.432E+03     70.1053E+03     431.778E+03              0.    -70.1053E-33    -431.778E-33     5.88426E-06    -126.096E-06    -126.096E-06              0.     5.88426E-06    -126.096E-06              0.    -126.096E-06    -2.48487E-06    -117.726E-06              0.    -64.3277E-06     24.5789E+06    -7.02075E+06    -27.3253E+06    -27.3253E+06              0.              0.    -27.3253E+06    -7.02075E+06    -27.3253E+06     27.3253E+06     11.4487E+06    -22.1488E+06    -8.30831E+06    -26.0378E+06              0.    -4.94828E+06
             212        No Value        No Value        No Value        No Value        No Value        No Value     20.0147E-06    -119.123E-06    -119.123E-06              0.     20.0147E-06    -119.123E-06              0.    -119.123E-06     18.1799E-06    -117.288E-06              0.    -31.7438E-06     23.3262E+06    -3.45543E+06    -24.8612E+06    -24.8612E+06              0.              0.    -24.8612E+06    -3.45543E+06    -24.8612E+06     24.8612E+06     9.43888E+06    -22.7397E+06    -3.73770E+06    -24.5789E+06              0.    -2.44183E+06
             213        No Value        No Value        No Value        No Value        No Value        No Value     25.5653E-06    -133.464E-06    -133.464E-06              0.     25.5653E-06    -133.464E-06              0.    -133.464E-06     21.5779E-06    -129.477E-06              0.    -49.7275E-06     26.2019E+06     -3.1811E+06    -27.6472E+06    -27.6472E+06              0.              0.    -27.6472E+06     -3.1811E+06    -27.6472E+06     27.6472E+06     10.2761E+06    -25.7620E+06    -3.79454E+06    -27.0337E+06              0.    -3.82519E+06
             216     398.100E+03     34.5675E+03     396.596E+03              0.    -34.5675E-33    -396.596E-33     684.851E-09    -109.526E-06    -109.526E-06              0.     684.851E-09    -109.526E-06              0.    -109.526E-06    -1.44183E-06    -107.399E-06              0.    -30.3223E-06     21.3864E+06    -7.07097E+06    -24.0265E+06    -24.0265E+06              0.              0.    -24.0265E+06    -7.07097E+06    -24.0265E+06     24.0265E+06     10.3658E+06    -18.4678E+06    -7.39815E+06    -23.6993E+06              0.    -2.33249E+06
             217        No Value        No Value        No Value        No Value        No Value        No Value     12.2189E-06    -113.699E-06    -113.699E-06              0.     12.2189E-06    -113.699E-06              0.    -113.699E-06     11.6266E-06    -113.107E-06              0.    -17.2306E-06     22.1727E+06    -4.81120E+06    -24.1833E+06    -24.1833E+06              0.              0.    -24.1833E+06    -4.81120E+06    -24.1833E+06     24.1833E+06     9.66482E+06    -20.9494E+06    -4.90232E+06    -24.0921E+06              0.    -1.32543E+06
             218        No Value        No Value        No Value        No Value        No Value        No Value     12.8799E-06    -116.614E-06    -116.614E-06              0.     12.8799E-06    -116.614E-06              0.    -116.614E-06     11.4427E-06    -115.177E-06              0.    -27.1333E-06     22.7438E+06    -4.85811E+06    -24.7803E+06    -24.7803E+06              0.              0.    -24.7803E+06    -4.85811E+06    -24.7803E+06     24.7803E+06     9.87948E+06    -21.5295E+06    -5.07923E+06    -24.5592E+06              0.    -2.08718E+06
             220     392.042E+03     8.83815E+03     391.942E+03              0.    -8.83815E-33    -391.942E-33    -1.02812E-06    -106.311E-06    -106.311E-06              0.              0.    -106.311E-06    -1.02812E-06    -106.311E-06    -1.21396E-06    -106.125E-06              0.    -8.83904E-06     20.7823E+06    -7.23548E+06    -23.4329E+06    -23.4329E+06              0.              0.    -23.4329E+06    -7.23548E+06    -23.4329E+06     23.4329E+06     10.2228E+06    -17.5939E+06    -7.26407E+06    -23.4043E+06              0.    -679.926E+03
             221        No Value        No Value        No Value        No Value        No Value        No Value     10.1355E-06    -112.147E-06    -112.147E-06              0.     10.1355E-06    -112.147E-06              0.    -112.147E-06     10.1351E-06    -112.146E-06              0.    -448.692E-09     21.8589E+06    -5.16672E+06    -23.9794E+06    -23.9794E+06              0.              0.    -23.9794E+06    -5.16672E+06    -23.9794E+06     23.9794E+06     9.71536E+06    -20.4161E+06    -5.16678E+06    -23.9793E+06              0.    -34.5148E+03
             222        No Value        No Value        No Value        No Value        No Value        No Value     9.43651E-06    -112.885E-06    -112.885E-06              0.     9.43651E-06    -112.885E-06              0.    -112.885E-06     9.28833E-06    -112.737E-06              0.    -8.50956E-06     22.0003E+06    -5.36904E+06    -24.1878E+06    -24.1878E+06              0.              0.    -24.1878E+06    -5.36904E+06    -24.1878E+06     24.1878E+06     9.85228E+06    -20.4468E+06    -5.39184E+06    -24.1650E+06              0.    -654.581E+03
             224     392.239E+03    -14.9149E+03     391.955E+03              0.     14.9149E-33    -391.955E-33    -1.03851E-06    -106.281E-06    -106.281E-06              0.              0.    -106.281E-06    -1.03851E-06    -106.281E-06    -1.29890E-06    -106.021E-06              0.     10.4570E-06     20.7766E+06    -7.23581E+06    -23.4270E+06    -23.4270E+06              0.              0.    -23.4270E+06    -7.23581E+06    -23.4270E+06     23.4270E+06     10.2209E+06    -17.5868E+06    -7.27587E+06    -23.3870E+06              0.     804.383E+03
             225        No Value        No Value        No Value        No Value        No Value        No Value     11.7223E-06    -113.770E-06    -113.770E-06              0.     11.7223E-06    -113.770E-06              0.    -113.770E-06     11.1750E-06    -113.223E-06              0.     16.5387E-06     22.1829E+06    -4.92498E+06    -24.2315E+06    -24.2315E+06              0.              0.    -24.2315E+06    -4.92498E+06    -24.2315E+06     24.2315E+06     9.71882E+06    -20.8990E+06    -5.00918E+06    -24.1473E+06              0.     1.27221E+06
             226        No Value        No Value        No Value        No Value        No Value        No Value     9.74778E-06    -113.083E-06    -113.083E-06              0.     9.74778E-06    -113.083E-06              0.    -113.083E-06     9.60735E-06    -112.943E-06              0.     8.30172E-06     22.0397E+06    -5.31367E+06    -24.2107E+06    -24.2107E+06              0.              0.    -24.2107E+06    -5.31367E+06    -24.2107E+06     24.2107E+06     9.84147E+06    -20.5229E+06    -5.33527E+06    -24.1891E+06              0.     638.594E+03
             228     399.493E+03    -42.8952E+03     397.184E+03              0.     42.8952E-33    -397.184E-33     802.450E-09    -109.914E-06    -109.914E-06              0.     802.450E-09    -109.914E-06              0.    -109.914E-06    -1.85854E-06    -107.253E-06              0.     33.9137E-06     21.4608E+06    -7.07073E+06    -24.1041E+06    -24.1041E+06              0.              0.    -24.1041E+06    -7.07073E+06    -24.1041E+06     24.1041E+06     10.3916E+06    -18.5550E+06    -7.48011E+06    -23.6947E+06              0.     2.60875E+06
             229        No Value        No Value        No Value        No Value        No Value        No Value     19.0515E-06    -120.909E-06    -120.909E-06              0.     19.0515E-06    -120.909E-06              0.    -120.909E-06     16.8213E-06    -118.678E-06              0.     35.0524E-06     23.6529E+06    -3.78485E+06    -25.3172E+06    -25.3172E+06              0.              0.    -25.3172E+06    -3.78485E+06    -25.3172E+06     25.3172E+06     9.70067E+06    -22.9568E+06    -4.12796E+06    -24.9740E+06              0.     2.69634E+06
             230        No Value        No Value        No Value        No Value        No Value        No Value     14.1098E-06    -117.043E-06    -117.043E-06              0.     14.1098E-06    -117.043E-06              0.    -117.043E-06     12.9154E-06    -115.849E-06              0.     24.9178E-06     22.8380E+06    -4.61608E+06    -24.7935E+06    -24.7935E+06              0.              0.    -24.7935E+06    -4.61608E+06    -24.7935E+06     24.7935E+06     9.80318E+06    -21.7510E+06    -4.79984E+06    -24.6097E+06              0.     1.91675E+06
             232     455.775E+03    -86.9858E+03     447.397E+03              0.     86.9858E-33    -447.397E-33     7.92098E-06    -140.945E-06    -140.945E-06              0.     7.92098E-06    -140.945E-06              0.    -140.945E-06    -4.07896E-06    -128.945E-06              0.     81.0527E-06     27.4686E+06     -7.5522E+06    -30.4547E+06    -30.4547E+06              0.              0.    -30.4547E+06     -7.5522E+06    -30.4547E+06     30.4547E+06     12.6690E+06    -24.9678E+06    -9.39834E+06    -28.6085E+06              0.     6.23482E+06
             233        No Value        No Value        No Value        No Value        No Value        No Value     43.5088E-06    -144.620E-06    -144.620E-06              0.     43.5088E-06    -144.620E-06              0.    -144.620E-06     42.7876E-06    -143.899E-06              0.     23.2511E-06     28.9294E+06     26.9821E+03    -28.9159E+06    -28.9159E+06              0.     26.9821E+03    -28.9159E+06              0.    -28.9159E+06     28.9429E+06     9.62965E+06    -28.9294E+06    -83.9674E+03    -28.8050E+06              0.     1.78855E+06
             234        No Value        No Value        No Value        No Value        No Value        No Value     23.8456E-06    -119.130E-06    -119.130E-06              0.     23.8456E-06    -119.130E-06              0.    -119.130E-06     22.4756E-06    -117.760E-06              0.     27.8570E-06     23.4129E+06    -2.61392E+06    -24.6102E+06    -24.6102E+06              0.              0.    -24.6102E+06    -2.61392E+06    -24.6102E+06     24.6102E+06     9.07470E+06    -23.0812E+06    -2.82469E+06    -24.3994E+06              0.     2.14284E+06
             749        No Value        No Value        No Value        No Value        No Value        No Value     37.5000E-06    -125.000E-06    -125.000E-06              0.     37.5000E-06    -125.000E-06              0.    -125.000E-06     37.5000E-06    -125.000E-06              0.    -60.3044E-15     25.0000E+06              0.    -25.0000E+06    -25.0000E+06              0.              0.    -25.0000E+06              0.    -25.0000E+06     25.0000E+06     8.33333E+06    -25.0000E+06    -3.24403E-03    -25.0000E+06              0.    -4.63880E-03
             750        No Value        No Value        No Value        No Value        No Value        No Value     37.5000E-06    -125.000E-06    -125.000E-06              0.     37.5000E-06    -125.000E-06              0.    -125.000E-06     37.5000E-06    -125.000E-06              0.    -30.0827E-15     25.0000E+06              0.    -25.0000E+06    -25.0000E+06              0.              0.    -25.0000E+06              0.    -25.0000E+06     25.0000E+06     8.33333E+06    -25.0000E+06    -2.20283E-03    -25.0000E+06              0.    -2.31405E-03
             751              0.              0.              0.     124.721E-06    -3.13289E-06    -124.682E-06     37.5000E-06    -125.000E-06    -125.000E-06              0.     37.5000E-06    -125.000E-06              0.    -125.000E-06     37.5000E-06    -125.000E-06              0.    -6.13517E-15     25.0000E+06              0.    -25.0000E+06    -25.0000E+06              0.              0.    -25.0000E+06              0.    -25.0000E+06     25.0000E+06     8.33333E+06    -25.0000E+06    -1.54801E-03    -25.0000E+06              0.    -471.936E-06
             752        No Value        No Value        No Value        No Value        No Value        No Value     37.5000E-06    -125.000E-06    -125.000E-06              0.     37.5000E-06    -125.000E-06              0.    -125.000E-06     37.5000E-06    -125.000E-06              0.    -7.43257E-15     25.0000E+06              0.    -25.0000E+06    -25.0000E+06              0.              0.    -25.0000E+06              0.    -25.0000E+06     25.0000E+06     8.33333E+06    -25.0000E+06     504.912E-06    -25.0000E+06              0.    -571.736E-06
             753        No Value        No Value        No Value        No Value        No Value        No Value     37.5000E-06    -125.000E-06    -125.000E-06              0.     37.5000E-06    -125.000E-06              0.    -125.000E-06     37.5000E-06    -125.000E-06              0.    -42.3569E-15     25.0000E+06              0.    -25.0000E+06    -25.0000E+06              0.              0.    -25.0000E+06              0.    -25.0000E+06     25.0000E+06     8.33333E+06    -25.0000E+06    -9.33268E-03    -25.0000E+06              0.    -3.25822E-03
             754        No Value        No Value        No Value        No Value        No Value        No Value     37.5000E-06    -125.000E-06    -125.000E-06              0.     37.5000E-06    -125.000E-06              0.    -125.000E-06     37.5000E-06    -125.000E-06              0.    -55.6383E-15     25.0000E+06              0.    -25.0000E+06    -25.0000E+06              0.              0.    -25.0000E+06              0.    -25.0000E+06     25.0000E+06     8.33333E+06    -25.0000E+06    -8.44548E-03    -25.0000E+06              0.    -4.27987E-03
             755              0.              0.              0.     124.696E-06    -1.88289E-06    -124.681E-06     37.5000E-06    -125.000E-06    -125.000E-06              0.     37.5000E-06    -125.000E-06              0.    -125.000E-06     37.5000E-06    -125.000E-06              0.    -7.28687E-15     25.0000E+06              0.    -25.0000E+06    -25.0000E+06              0.              0.    -25.0000E+06              0.    -25.0000E+06     25.0000E+06     8.33333E+06    -25.0000E+06    -12.0177E-03    -25.0000E+06              0.    -560.529E-06
             756        No Value        No Value        No Value        No Value        No Value        No Value     37.5000E-06    -125.000E-06    -125.000E-06              0.     37.5000E-06    -125.000E-06              0.    -125.000E-06     37.5000E-06    -125.000E-06              0.     3.36157E-15     25.0000E+06              0.    -25.0000E+06    -25.0000E+06              0.              0.    -25.0000E+06              0.    -25.0000E+06     25.0000E+06     8.33333E+06    -25.0000E+06    -12.5075E-03    -25.0000E+06              0.     258.583E-06
             757        No Value        No Value        No Value        No Value        No Value        No Value     37.5000E-06    -125.000E-06    -125.000E-06              0.     37.5000E-06    -125.000E-06              0.    -125.000E-06     37.5000E-06    -125.000E-06              0.    -27.3501E-15     25.0000E+06              0.    -25.0000E+06    -25.0000E+06              0.              0.    -25.0000E+06              0.    -25.0000E+06     25.0000E+06     8.33333E+06    -25.0000E+06    -11.7465E-03    -25.0000E+06              0.    -2.10385E-03
             758              0.              0.              0.     124.682E-06    -632.894E-09    -124.681E-06     37.5000E-06    -125.000E-06    -125.000E-06              0.     37.5000E-06    -125.000E-06              0.    -125.000E-06     37.5000E-06    -125.000E-06              0.     2.80650E-15     25.0000E+06              0.    -25.0000E+06    -25.0000E+06              0.              0.    -25.0000E+06              0.    -25.0000E+06     25.0000E+06     8.33333E+06    -25.0000E+06    -21.4236E-03    -25.0000E+06              0.     215.884E-06
             759        No Value        No Value        No Value        No Value        No Value        No Value     37.5000E-06    -125.000E-06    -125.000E-06              0.     37.5000E-06    -125.000E-06              0.    -125.000E-06     37.5000E-06    -125.000E-06              0.     48.6117E-15     25.0000E+06              0.    -25.0000E+06    -25.0000E+06              0.              0.    -25.0000E+06              0.    -25.0000E+06     25.0000E+06     8.33333E+06    -25.0000E+06    -10.9349E-03    -25.0000E+06              0.     3.73936E-03
             760        No Value        No Value        No Value        No Value        No Value        No Value     37.5000E-06    -125.000E-06    -125.000E-06              0.     37.5000E-06    -125.000E-06              0.    -125.000E-06     37.5000E-06    -125.000E-06              0.     17.5622E-15     25.0000E+06              0.    -25.0000E+06    -25.0000E+06              0.              0.    -25.0000E+06              0.    -25.0000E+06     25.0000E+06     8.33333E+06    -25.0000E+06    -10.6868E-03    -25.0000E+06              0.     1.35094E-03
             761              0.              0.              0.     124.682E-06     617.106E-09    -124.680E-06     37.5000E-06    -125.000E-06    -125.000E-06              0.     37.5000E-06    -125.000E-06              0.    -125.000E-06     37.5000E-06    -125.000E-06              0.     11.1673E-15     25.0000E+06              0.    -25.0000E+06    -25.0000E+06              0.              0.    -25.0000E+06              0.    -25.0000E+06     25.0000E+06     8.33333E+06    -25.0000E+06    -21.6848E-03    -25.0000E+06              0.     859.024E-06
             762        No Value        No Value        No Value        No Value        No Value        No Value     37.5000E-06    -125.000E-06    -125.000E-06              0.     37.5000E-06    -125.000E-06              0.    -125.000E-06     37.5000E-06    -125.000E-06              0.     60.4470E-15     25.0000E+06              0.    -25.0000E+06    -25.0000E+06              0.              0.    -25.0000E+06              0.    -25.0000E+06     25.0000E+06     8.33333E+06    -25.0000E+06    -4.65533E-03    -25.0000E+06              0.     4.64977E-03
             763        No Value        No Value        No Value        No Value        No Value        No Value     37.5000E-06    -125.000E-06    -125.000E-06              0.     37.5000E-06    -125.000E-06              0.    -125.000E-06     37.5000E-06    -125.000E-06              0.     52.5642E-15     25.0000E+06              0.    -25.0000E+06    -25.0000E+06              0.              0.    -25.0000E+06              0.    -25.0000E+06     25.0000E+06     8.33333E+06    -25.0000E+06    -5.96646E-03    -25.0000E+06              0.     4.04340E-03
             764              0.              0.              0.     124.694E-06     1.86711E-06    -124.680E-06     37.5000E-06    -125.000E-06    -125.000E-06              0.     37.5000E-06    -125.000E-06              0.    -125.000E-06     37.5000E-06    -125.000E-06              0.     12.1185E-15     25.0000E+06              0.    -25.0000E+06    -25.0000E+06              0.              0.    -25.0000E+06              0.    -25.0000E+06     25.0000E+06     8.33333E+06    -25.0000E+06    -12.5349E-03    -25.0000E+06              0.     932.189E-06
             766        No Value        No Value        No Value        No Value        No Value        No Value     37.5000E-06    -125.000E-06    -125.000E-06              0.     37.5000E-06    -125.000E-06              0.    -125.000E-06     37.5000E-06    -125.000E-06              0.     40.0862E-15     25.0000E+06              0.    -25.0000E+06    -25.0000E+06              0.              0.    -25.0000E+06              0.    -25.0000E+06     25.0000E+06     8.33333E+06    -25.0000E+06    -1.33838E-03    -25.0000E+06              0.     3.08356E-03
             767              0.              0.              0.     124.718E-06     3.11711E-06    -124.680E-06     37.5000E-06    -125.000E-06    -125.000E-06              0.     37.5000E-06    -125.000E-06              0.    -125.000E-06     37.5000E-06    -125.000E-06              0.    -3.30199E-15     25.0000E+06              0.    -25.0000E+06    -25.0000E+06              0.              0.    -25.0000E+06              0.    -25.0000E+06     25.0000E+06     8.33333E+06    -25.0000E+06    -1.50164E-03    -25.0000E+06              0.    -254.000E-06


  Minimum                     0.    -86.9858E+03              0.              0.    -3.75789E-06    -124.682E-06    -1.63473E-06    -163.225E-06    -163.225E-06              0.              0.    -163.225E-06    -2.76662E-06    -163.225E-06    -11.1718E-06    -155.084E-06              0.    -82.3114E-06     20.6628E+06    -7.70223E+06    -34.2666E+06    -34.2666E+06              0.              0.    -34.2666E+06    -7.70223E+06    -34.2666E+06     23.3247E+06     6.03540E+06    -30.8540E+06    -9.47365E+06    -33.0141E+06              0.    -6.33165E+06
         At Node             767             232             767             232             204             204               5               7               7             767             224               7               6               7               6               7             767               1               4               6               7               7             767             767               7               6               7               4              14               7               6               7             767               1

  Maximum            455.775E+03     90.8248E+03     447.397E+03     124.739E-06     3.74211E-06    -289.244E-33     70.4456E-06    -105.644E-06    -105.644E-06              0.     70.4456E-06    -105.644E-06              0.    -105.644E-06     69.3422E-06    -105.362E-06              0.     81.0527E-06     31.9093E+06     6.65944E+06    -23.3247E+06    -23.3247E+06              0.     6.65944E+06    -23.3247E+06              0.    -23.3247E+06     34.2666E+06     13.2239E+06    -17.3559E+06     6.48968E+06    -23.3237E+06              0.     6.23482E+06
         At Node             232               1             232             204             210               7              14               4               4             767              14               4             767               4              14               5             767             232               7              14               4               4             767              14               4             767               4               7               7               4              14               4             767             232

           Total     5.05064E+06     5.37109E-03     5.00000E+06     1.62113E-03    -102.620E-09    -1.62085E-03     1.63572E-03    -7.61650E-03    -7.61650E-03              0.     1.64554E-03    -7.61650E-03    -9.82283E-06    -7.61650E-03     1.55476E-03    -7.53554E-03              0.     21.2525E-06     1.51059E+09    -142.688E+06    -1.56611E+09    -1.56611E+09              0.     7.52833E+06    -1.56611E+09    -150.216E+06    -1.56611E+09     1.57363E+09     569.598E+06    -1.45978E+09    -155.143E+06    -1.55365E+09              0.     1.63481E+06


