********************************************************************************
Field Output Report, written Sat Jun 23 00:41:05 2018

Source 1
---------

   ODB: C:/Users/lucas_omena/Dropbox/Mestrado/Disciplinas/MEF/Novos Exemplos/T6_50.odb
   Step: Step_Load
   Frame: Increment      1: Step Time =    1.000

Loc 1 : Nodal values from source 1

Output sorted by column "Node Label".

Field Output reported at nodes for part: PART_GEOMETRY-1
   Computation algorithm: EXTRAPOLATE_COMPUTE_AVERAGE
   Averaged at nodes
   Averaging regions: ODB_REGIONS

      Node Label    RF.Magnitude          RF.RF1          RF.RF2     U.Magnitude            U.U1            U.U2     E.Max. In-P  E.Max. In-P(a)     E.Min. In-P     E.Out-of-Pl     E.Max. Prin  E.Max. Prin(a)     E.Mid. Prin     E.Min. Prin           E.E11           E.E22           E.E33           E.E12         S.Mises     S.Max. In-P  S.Max. In-P(a)     S.Min. In-P     S.Out-of-Pl     S.Max. Prin  S.Max. Prin(a)     S.Mid. Prin     S.Min. Prin        S.Tresca      S.Pressure     S.Third Inv           S.S11           S.S22           S.S33           S.S12
                          @Loc 1          @Loc 1          @Loc 1          @Loc 1          @Loc 1          @Loc 1          @Loc 1          @Loc 1          @Loc 1          @Loc 1          @Loc 1          @Loc 1          @Loc 1          @Loc 1          @Loc 1          @Loc 1          @Loc 1          @Loc 1          @Loc 1          @Loc 1          @Loc 1          @Loc 1          @Loc 1          @Loc 1          @Loc 1          @Loc 1          @Loc 1          @Loc 1          @Loc 1          @Loc 1          @Loc 1          @Loc 1          @Loc 1          @Loc 1
---------------------------------------------------------------------------------------------------------------------------------------------------------------------------------------------------------------------------------------------------------------------------------------------------------------------------------------------------------------------------------------------------------------------------------------------------------------------------------------------------------------------------------------------------------------------------------
               1     428.177E+03     123.828E+03     409.880E+03              0.    -123.828E-33    -409.880E-33     8.99134E-06    -131.494E-06    -131.494E-06              0.     8.99134E-06    -131.494E-06              0.    -131.494E-06    -396.634E-09    -122.106E-06              0.    -70.1638E-06     25.6244E+06    -6.69382E+06    -28.3070E+06    -28.3070E+06              0.              0.    -28.3070E+06    -6.69382E+06    -28.3070E+06     28.3070E+06     11.6669E+06    -23.5337E+06    -8.13812E+06    -26.8627E+06              0.    -5.39721E+06
               2     589.403E+03     58.4115E+03     586.501E+03              0.    -58.4115E-33    -586.502E-33    -1.73339E-06    -107.725E-06    -107.725E-06              0.              0.    -107.725E-06    -1.73339E-06    -107.725E-06    -3.80431E-06    -105.654E-06              0.    -29.0246E-06     21.0699E+06    -7.48372E+06    -23.7901E+06    -23.7901E+06              0.              0.    -23.7901E+06    -7.48372E+06    -23.7901E+06     23.7901E+06     10.4246E+06    -17.6851E+06    -7.80232E+06    -23.4715E+06              0.    -2.23266E+06
               3     577.788E+03     6.30310E+03     577.754E+03              0.    -6.30310E-33    -577.754E-33    -3.04509E-06    -105.001E-06    -105.001E-06              0.              0.    -105.001E-06    -3.04509E-06    -105.001E-06    -3.08190E-06    -104.965E-06              0.     2.01332E-06     20.5671E+06    -7.59241E+06    -23.2780E+06    -23.2780E+06              0.              0.    -23.2780E+06    -7.59241E+06    -23.2780E+06     23.2780E+06     10.2901E+06    -16.9174E+06    -7.59808E+06    -23.2723E+06              0.     154.871E+03
               4     580.371E+03    -35.4593E+03     579.287E+03              0.     35.4593E-33    -579.287E-33    -3.05399E-06    -111.920E-06    -111.920E-06              0.     1.78436E-06    -111.920E-06    -4.83834E-06    -111.920E-06    -10.0451E-06    -104.929E-06              0.     48.2554E-06     21.9498E+06    -8.05056E+06    -24.7992E+06    -24.7992E+06              0.              0.    -24.7992E+06    -8.05056E+06    -24.7992E+06     24.7992E+06     10.9499E+06    -17.9092E+06    -9.12612E+06    -23.7237E+06              0.     3.71195E+06
               5     415.777E+03    -112.354E+03     400.309E+03              0.     112.354E-33    -400.309E-33     20.9683E-06    -149.315E-06    -149.315E-06              0.     20.9683E-06    -149.315E-06              0.    -149.315E-06     13.7858E-06    -142.133E-06              0.     68.4535E-06     29.1704E+06    -5.23654E+06    -31.4340E+06    -31.4340E+06              0.              0.    -31.4340E+06    -5.23654E+06    -31.4340E+06     31.4340E+06     12.2235E+06    -28.0836E+06    -6.34154E+06    -30.3290E+06              0.     5.26566E+06
               7        No Value        No Value        No Value        No Value        No Value        No Value     43.3431E-06    -129.000E-06    -129.000E-06              0.     43.3431E-06    -129.000E-06              0.    -129.000E-06     43.2612E-06    -128.918E-06              0.    -7.51089E-06     26.0191E+06     1.02044E+06    -25.4939E+06    -25.4939E+06              0.     1.02044E+06    -25.4939E+06              0.    -25.4939E+06     26.5143E+06     8.15782E+06    -25.9740E+06     1.00785E+06    -25.4813E+06              0.    -577.761E+03
               8        No Value        No Value        No Value        No Value        No Value        No Value     29.6881E-06    -123.781E-06    -123.781E-06              0.     29.6881E-06    -123.781E-06              0.    -123.781E-06     29.6879E-06    -123.781E-06              0.     362.251E-09     24.4700E+06    -1.63652E+06    -25.2472E+06    -25.2472E+06              0.              0.    -25.2472E+06    -1.63652E+06    -25.2472E+06     25.2472E+06     8.96123E+06    -24.3464E+06    -1.63656E+06    -25.2471E+06              0.     27.8656E+03
               9        No Value        No Value        No Value        No Value        No Value        No Value     34.6165E-06    -127.540E-06    -127.540E-06              0.     34.6165E-06    -127.540E-06              0.    -127.540E-06     34.3007E-06    -127.224E-06              0.     14.2997E-06     25.3572E+06    -801.183E+03    -25.7483E+06    -25.7483E+06              0.              0.    -25.7483E+06    -801.183E+03    -25.7483E+06     25.7483E+06     8.84983E+06    -25.3287E+06    -849.778E+03    -25.6997E+06              0.     1.09997E+06
              10        No Value        No Value        No Value        No Value        No Value        No Value     67.7329E-06    -130.338E-06    -130.338E-06              0.     67.7329E-06    -130.338E-06              0.    -130.338E-06     66.7741E-06    -129.379E-06              0.    -27.4954E-06     27.8642E+06     6.29264E+06    -24.1798E+06    -24.1798E+06              0.     6.29264E+06    -24.1798E+06              0.    -24.1798E+06     30.4725E+06     5.96239E+06    -26.1930E+06     6.14513E+06    -24.0323E+06              0.    -2.11503E+06
              96        No Value        No Value        No Value        No Value        No Value        No Value     37.5000E-06    -125.000E-06    -125.000E-06              0.     37.5000E-06    -125.000E-06              0.    -125.000E-06     37.5000E-06    -125.000E-06              0.    -63.4466E-15     25.0000E+06              0.    -25.0000E+06    -25.0000E+06              0.              0.    -25.0000E+06              0.    -25.0000E+06     25.0000E+06     8.33333E+06    -25.0000E+06     1.30366E-03    -25.0000E+06              0.    -4.88051E-03
              97        No Value        No Value        No Value        No Value        No Value        No Value     37.5000E-06    -125.000E-06    -125.000E-06              0.     37.5000E-06    -125.000E-06              0.    -125.000E-06     37.5000E-06    -125.000E-06              0.    -113.465E-15     25.0000E+06              0.    -25.0000E+06    -25.0000E+06              0.              0.    -25.0000E+06              0.    -25.0000E+06     25.0000E+06     8.33333E+06    -25.0000E+06     6.33938E-03    -25.0000E+06              0.    -8.72811E-03
              98        No Value        No Value        No Value        No Value        No Value        No Value     37.5000E-06    -125.000E-06    -125.000E-06              0.     37.5000E-06    -125.000E-06              0.    -125.000E-06     37.5000E-06    -125.000E-06              0.     16.6325E-15     25.0000E+06              0.    -25.0000E+06    -25.0000E+06              0.              0.    -25.0000E+06              0.    -25.0000E+06     25.0000E+06     8.33333E+06    -25.0000E+06     4.75390E-03    -25.0000E+06              0.     1.27942E-03
              99        No Value        No Value        No Value        No Value        No Value        No Value     37.5000E-06    -125.000E-06    -125.000E-06              0.     37.5000E-06    -125.000E-06              0.    -125.000E-06     37.5000E-06    -125.000E-06              0.     136.891E-15     25.0000E+06              0.    -25.0000E+06    -25.0000E+06              0.              0.    -25.0000E+06              0.    -25.0000E+06     25.0000E+06     8.33333E+06    -25.0000E+06    -3.74330E-03    -25.0000E+06              0.     10.5301E-03
             101              0.              0.              0.     124.730E-06    -3.76696E-06    -124.673E-06     37.5000E-06    -125.000E-06    -125.000E-06              0.     37.5000E-06    -125.000E-06              0.    -125.000E-06     37.5000E-06    -125.000E-06              0.     17.5261E-15     25.0000E+06              0.    -25.0000E+06    -25.0000E+06              0.              0.    -25.0000E+06              0.    -25.0000E+06     25.0000E+06     8.33333E+06    -25.0000E+06     1.33536E-03    -25.0000E+06              0.     1.34817E-03
             102              0.              0.              0.     124.686E-06    -1.89196E-06    -124.672E-06     37.5000E-06    -125.000E-06    -125.000E-06              0.     37.5000E-06    -125.000E-06              0.    -125.000E-06     37.5000E-06    -125.000E-06              0.    -41.3379E-15     25.0000E+06              0.    -25.0000E+06    -25.0000E+06              0.              0.    -25.0000E+06              0.    -25.0000E+06     25.0000E+06     8.33333E+06    -25.0000E+06    -12.7791E-03    -25.0000E+06              0.    -3.17984E-03
             103              0.              0.              0.     124.671E-06    -16.9628E-09    -124.671E-06     37.5000E-06    -125.000E-06    -125.000E-06              0.     37.5000E-06    -125.000E-06              0.    -125.000E-06     37.5000E-06    -125.000E-06              0.     8.28767E-15     25.0000E+06              0.    -25.0000E+06    -25.0000E+06              0.              0.    -25.0000E+06              0.    -25.0000E+06     25.0000E+06     8.33333E+06    -25.0000E+06    -25.2720E-03    -25.0000E+06              0.     637.513E-06
             104              0.              0.              0.     124.683E-06     1.85804E-06    -124.669E-06     37.5000E-06    -125.000E-06    -125.000E-06              0.     37.5000E-06    -125.000E-06              0.    -125.000E-06     37.5000E-06    -125.000E-06              0.     42.4697E-15     25.0000E+06              0.    -25.0000E+06    -25.0000E+06              0.              0.    -25.0000E+06              0.    -25.0000E+06     25.0000E+06     8.33333E+06    -25.0000E+06    -14.5701E-03    -25.0000E+06              0.     3.26690E-03
             105              0.              0.              0.     124.724E-06     3.73304E-06    -124.668E-06     37.5000E-06    -125.000E-06    -125.000E-06              0.     37.5000E-06    -125.000E-06              0.    -125.000E-06     37.5000E-06    -125.000E-06              0.    -13.9460E-15     25.0000E+06              0.    -25.0000E+06    -25.0000E+06              0.              0.    -25.0000E+06              0.    -25.0000E+06     25.0000E+06     8.33333E+06    -25.0000E+06     1.06878E-03    -25.0000E+06              0.    -1.07277E-03
             106     629.437E+03     81.9116E+03     624.084E+03              0.    -81.9116E-33    -624.084E-33     3.15258E-06    -118.726E-06    -118.726E-06              0.     3.15258E-06    -118.726E-06              0.    -118.726E-06    -2.54478E-06    -113.029E-06              0.    -51.4559E-06     23.1579E+06    -7.13523E+06    -25.8858E+06    -25.8858E+06              0.              0.    -25.8858E+06    -7.13523E+06    -25.8858E+06     25.8858E+06     11.0070E+06    -20.4563E+06    -8.01175E+06    -25.0093E+06              0.    -3.95815E+06
             107        No Value        No Value        No Value        No Value        No Value        No Value     20.0265E-06    -117.177E-06    -117.177E-06              0.     20.0265E-06    -117.177E-06              0.    -117.177E-06     19.2841E-06    -116.435E-06              0.    -20.1295E-06     22.9519E+06    -3.32456E+06    -24.4328E+06    -24.4328E+06              0.              0.    -24.4328E+06    -3.32456E+06    -24.4328E+06     24.4328E+06     9.25246E+06    -22.4005E+06    -3.43876E+06    -24.3186E+06              0.    -1.54842E+06
             108        No Value        No Value        No Value        No Value        No Value        No Value     23.9551E-06    -128.035E-06    -128.035E-06              0.     23.9551E-06    -128.035E-06              0.    -128.035E-06     21.4323E-06    -125.512E-06              0.    -38.8373E-06     25.1227E+06    -3.17701E+06    -26.5601E+06    -26.5601E+06              0.              0.    -26.5601E+06    -3.17701E+06    -26.5601E+06     26.5601E+06     9.91237E+06    -24.6647E+06    -3.56514E+06    -26.1720E+06              0.    -2.98749E+06
             111     590.459E+03     19.8226E+03     590.126E+03              0.    -19.8226E-33    -590.126E-33    -1.32674E-06    -106.685E-06    -106.685E-06              0.              0.    -106.685E-06    -1.32674E-06    -106.685E-06    -1.74635E-06    -106.265E-06              0.    -13.2715E-06     20.8599E+06    -7.32574E+06    -23.5346E+06    -23.5346E+06              0.              0.    -23.5346E+06    -7.32574E+06    -23.5346E+06     23.5346E+06     10.2868E+06    -17.5955E+06    -7.39029E+06    -23.4701E+06              0.    -1.02088E+06
             112        No Value        No Value        No Value        No Value        No Value        No Value     14.5558E-06    -114.477E-06    -114.477E-06              0.     14.5558E-06    -114.477E-06              0.    -114.477E-06     14.5554E-06    -114.477E-06              0.    -439.740E-09     22.3454E+06    -4.34888E+06    -24.2001E+06    -24.2001E+06              0.              0.    -24.2001E+06    -4.34888E+06    -24.2001E+06     24.2001E+06     9.51634E+06    -21.3619E+06    -4.34893E+06    -24.2001E+06              0.    -33.8260E+03
             113        No Value        No Value        No Value        No Value        No Value        No Value     13.6868E-06    -115.869E-06    -115.869E-06              0.     13.6868E-06    -115.869E-06              0.    -115.869E-06     13.3861E-06    -115.569E-06              0.    -12.4695E-06     22.6063E+06    -4.63164E+06    -24.5634E+06    -24.5634E+06              0.              0.    -24.5634E+06    -4.63164E+06    -24.5634E+06     24.5634E+06     9.73167E+06    -21.4995E+06    -4.67791E+06    -24.5171E+06              0.    -959.192E+03
             115     591.544E+03    -34.4379E+03     590.541E+03              0.     34.4379E-33    -590.541E-33    -1.27861E-06    -106.928E-06    -106.928E-06              0.              0.    -106.928E-06    -1.27861E-06    -106.928E-06    -2.01769E-06    -106.189E-06              0.     17.6110E-06     20.9067E+06    -7.33122E+06    -23.5850E+06    -23.5850E+06              0.              0.    -23.5850E+06    -7.33122E+06    -23.5850E+06     23.5850E+06     10.3054E+06    -17.6462E+06    -7.44492E+06    -23.4713E+06              0.     1.35469E+06
             116        No Value        No Value        No Value        No Value        No Value        No Value     18.8244E-06    -118.321E-06    -118.321E-06              0.     18.8244E-06    -118.321E-06              0.    -118.321E-06     17.9260E-06    -117.423E-06              0.     22.1266E-06     23.1500E+06    -3.66418E+06    -24.7635E+06    -24.7635E+06              0.              0.    -24.7635E+06    -3.66418E+06    -24.7635E+06     24.7635E+06     9.47590E+06    -22.4836E+06    -3.80239E+06    -24.6253E+06              0.     1.70205E+06
             117        No Value        No Value        No Value        No Value        No Value        No Value     14.5403E-06    -116.173E-06    -116.173E-06              0.     14.5403E-06    -116.173E-06              0.    -116.173E-06     14.3569E-06    -115.990E-06              0.     9.78402E-06     22.6738E+06    -4.46410E+06    -24.5739E+06    -24.5739E+06              0.              0.    -24.5739E+06    -4.46410E+06    -24.5739E+06     24.5739E+06     9.67932E+06    -21.6517E+06    -4.49231E+06    -24.5457E+06              0.     752.617E+03
             119     650.549E+03    -108.026E+03     641.517E+03              0.     108.026E-33    -641.517E-33     5.02758E-06    -131.140E-06    -131.140E-06              0.     5.02758E-06    -131.140E-06              0.    -131.140E-06    -3.92789E-06    -122.184E-06              0.     67.5054E-06     25.5679E+06    -7.54162E+06    -28.4905E+06    -28.4905E+06              0.              0.    -28.4905E+06    -7.54162E+06    -28.4905E+06     28.4905E+06     12.0107E+06    -22.8572E+06    -8.91939E+06    -27.1127E+06              0.     5.19272E+06
             120        No Value        No Value        No Value        No Value        No Value        No Value     40.8735E-06    -136.349E-06    -136.349E-06              0.     40.8735E-06    -136.349E-06              0.    -136.349E-06     40.2799E-06    -135.756E-06              0.     20.4791E-06     27.2685E+06    -6.87994E+03    -27.2720E+06    -27.2720E+06              0.              0.    -27.2720E+06    -6.87994E+03    -27.2720E+06     27.2720E+06     9.09295E+06    -27.2685E+06    -98.2042E+03    -27.1806E+06              0.     1.57532E+06
             121        No Value        No Value        No Value        No Value        No Value        No Value     23.2520E-06    -116.493E-06    -116.493E-06              0.     23.2520E-06    -116.493E-06              0.    -116.493E-06     22.5663E-06    -115.808E-06              0.     19.5309E-06     22.8931E+06    -2.57055E+06    -24.0699E+06    -24.0699E+06              0.              0.    -24.0699E+06    -2.57055E+06    -24.0699E+06     24.0699E+06     8.88014E+06    -22.5650E+06    -2.67605E+06    -23.9644E+06              0.     1.50238E+06
             357        No Value        No Value        No Value        No Value        No Value        No Value     37.5000E-06    -125.000E-06    -125.000E-06              0.     37.5000E-06    -125.000E-06              0.    -125.000E-06     37.5000E-06    -125.000E-06              0.    -74.0433E-15     25.0000E+06              0.    -25.0000E+06    -25.0000E+06              0.              0.    -25.0000E+06              0.    -25.0000E+06     25.0000E+06     8.33333E+06    -25.0000E+06    -4.67531E-03    -25.0000E+06              0.    -5.69563E-03
             358        No Value        No Value        No Value        No Value        No Value        No Value     37.5000E-06    -125.000E-06    -125.000E-06              0.     37.5000E-06    -125.000E-06              0.    -125.000E-06     37.5000E-06    -125.000E-06              0.    -55.7507E-15     25.0000E+06              0.    -25.0000E+06    -25.0000E+06              0.              0.    -25.0000E+06              0.    -25.0000E+06     25.0000E+06     8.33333E+06    -25.0000E+06    -4.28230E-03    -25.0000E+06              0.    -4.28851E-03
             359              0.              0.              0.     124.705E-06    -2.82946E-06    -124.673E-06     37.5000E-06    -125.000E-06    -125.000E-06              0.     37.5000E-06    -125.000E-06              0.    -125.000E-06     37.5000E-06    -125.000E-06              0.    -15.2643E-15     25.0000E+06              0.    -25.0000E+06    -25.0000E+06              0.              0.    -25.0000E+06              0.    -25.0000E+06     25.0000E+06     8.33333E+06    -25.0000E+06    -4.26645E-03    -25.0000E+06              0.    -1.17418E-03
             360        No Value        No Value        No Value        No Value        No Value        No Value     37.5000E-06    -125.000E-06    -125.000E-06              0.     37.5000E-06    -125.000E-06              0.    -125.000E-06     37.5000E-06    -125.000E-06              0.    -22.9602E-15     25.0000E+06              0.    -25.0000E+06    -25.0000E+06              0.              0.    -25.0000E+06              0.    -25.0000E+06     25.0000E+06     8.33333E+06    -25.0000E+06     1.31951E-03    -25.0000E+06              0.    -1.76617E-03
             361        No Value        No Value        No Value        No Value        No Value        No Value     37.5000E-06    -125.000E-06    -125.000E-06              0.     37.5000E-06    -125.000E-06              0.    -125.000E-06     37.5000E-06    -125.000E-06              0.     5.13125E-15     25.0000E+06              0.    -25.0000E+06    -25.0000E+06              0.              0.    -25.0000E+06              0.    -25.0000E+06     25.0000E+06     8.33333E+06    -25.0000E+06    -10.3174E-03    -25.0000E+06              0.     394.712E-06
             362        No Value        No Value        No Value        No Value        No Value        No Value     37.5000E-06    -125.000E-06    -125.000E-06              0.     37.5000E-06    -125.000E-06              0.    -125.000E-06     37.5000E-06    -125.000E-06              0.    -45.2600E-15     25.0000E+06              0.    -25.0000E+06    -25.0000E+06              0.              0.    -25.0000E+06              0.    -25.0000E+06     25.0000E+06     8.33333E+06    -25.0000E+06    -9.40802E-03    -25.0000E+06              0.    -3.48154E-03
             363              0.              0.              0.     124.675E-06    -954.463E-09    -124.671E-06     37.5000E-06    -125.000E-06    -125.000E-06              0.     37.5000E-06    -125.000E-06              0.    -125.000E-06     37.5000E-06    -125.000E-06              0.    -5.83792E-15     25.0000E+06              0.    -25.0000E+06    -25.0000E+06              0.              0.    -25.0000E+06              0.    -25.0000E+06     25.0000E+06     8.33333E+06    -25.0000E+06    -20.4227E-03    -25.0000E+06              0.    -449.070E-06
             364        No Value        No Value        No Value        No Value        No Value        No Value     37.5000E-06    -125.000E-06    -125.000E-06              0.     37.5000E-06    -125.000E-06              0.    -125.000E-06     37.5000E-06    -125.000E-06              0.     85.9476E-15     25.0000E+06              0.    -25.0000E+06    -25.0000E+06              0.              0.    -25.0000E+06              0.    -25.0000E+06     25.0000E+06     8.33333E+06    -25.0000E+06    -7.47663E-03    -25.0000E+06              0.     6.61135E-03
             365        No Value        No Value        No Value        No Value        No Value        No Value     37.5000E-06    -125.000E-06    -125.000E-06              0.     37.5000E-06    -125.000E-06              0.    -125.000E-06     37.5000E-06    -125.000E-06              0.     33.2837E-15     25.0000E+06              0.    -25.0000E+06    -25.0000E+06              0.              0.    -25.0000E+06              0.    -25.0000E+06     25.0000E+06     8.33333E+06    -25.0000E+06    -6.58814E-03    -25.0000E+06              0.     2.56029E-03
             366              0.              0.              0.     124.673E-06     920.537E-09    -124.670E-06     37.5000E-06    -125.000E-06    -125.000E-06              0.     37.5000E-06    -125.000E-06              0.    -125.000E-06     37.5000E-06    -125.000E-06              0.     21.7825E-15     25.0000E+06              0.    -25.0000E+06    -25.0000E+06              0.              0.    -25.0000E+06              0.    -25.0000E+06     25.0000E+06     8.33333E+06    -25.0000E+06    -21.6594E-03    -25.0000E+06              0.     1.67558E-03
             368        No Value        No Value        No Value        No Value        No Value        No Value     37.5000E-06    -125.000E-06    -125.000E-06              0.     37.5000E-06    -125.000E-06              0.    -125.000E-06     37.5000E-06    -125.000E-06              0.     61.4723E-15     25.0000E+06              0.    -25.0000E+06    -25.0000E+06              0.              0.    -25.0000E+06              0.    -25.0000E+06     25.0000E+06     8.33333E+06    -25.0000E+06    -1.33726E-03    -25.0000E+06              0.     4.72864E-03
             369              0.              0.              0.     124.700E-06     2.79554E-06    -124.669E-06     37.5000E-06    -125.000E-06    -125.000E-06              0.     37.5000E-06    -125.000E-06              0.    -125.000E-06     37.5000E-06    -125.000E-06              0.     10.5292E-15     25.0000E+06              0.    -25.0000E+06    -25.0000E+06              0.              0.    -25.0000E+06              0.    -25.0000E+06     25.0000E+06     8.33333E+06    -25.0000E+06    -5.07059E-03    -25.0000E+06              0.     809.942E-06


  Minimum                     0.    -112.354E+03              0.              0.    -3.76696E-06    -124.673E-06    -3.05399E-06    -149.315E-06    -149.315E-06              0.              0.    -149.315E-06    -4.83834E-06    -149.315E-06    -10.0451E-06    -142.133E-06              0.    -70.1638E-06     20.5671E+06    -8.05056E+06    -31.4340E+06    -31.4340E+06              0.              0.    -31.4340E+06    -8.05056E+06    -31.4340E+06     23.2780E+06     5.96239E+06    -28.0836E+06    -9.12612E+06    -30.3290E+06              0.    -5.39721E+06
         At Node             369               5             369             119             101             101               4               5               5             369             115               5               4               5               4               5             369               1               3               4               5               5             369             369               5               4               5               3              10               5               4               5             369               1

  Maximum            650.549E+03     123.828E+03     641.517E+03     124.730E-06     3.73304E-06    -400.309E-33     67.7329E-06    -105.001E-06    -105.001E-06              0.     67.7329E-06    -105.001E-06              0.    -105.001E-06     66.7741E-06    -104.929E-06              0.     68.4535E-06     29.1704E+06     6.29264E+06    -23.2780E+06    -23.2780E+06              0.     6.29264E+06    -23.2780E+06              0.    -23.2780E+06     31.4340E+06     12.2235E+06    -16.9174E+06     6.14513E+06    -23.2723E+06              0.     5.26566E+06
         At Node             119               1             119             101             105               5              10               3               3             369              10               3             369               3              10               4             369               5               5              10               3               3             369              10               3             369               3               5               5               3              10               3             369               5

           Total     5.05351E+06    -3.41797E-03     5.00000E+06     1.12225E-03    -152.665E-09    -1.12204E-03     1.16030E-03    -5.16749E-03    -5.16749E-03              0.     1.17252E-03    -5.16749E-03    -12.2222E-06    -5.16749E-03     1.11153E-03    -5.11872E-03              0.     19.6232E-06     1.02660E+09    -85.7033E+06    -1.05921E+09    -1.05921E+09              0.     7.31308E+06    -1.05921E+09    -93.0164E+06    -1.05921E+09     1.06652E+09     381.637E+06    -993.422E+06    -93.2056E+06    -1.05171E+09              0.     1.50948E+06


