********************************************************************************
Field Output Report, written Sat Jun 23 00:46:25 2018

Source 1
---------

   ODB: C:/Users/lucas_omena/Dropbox/Mestrado/Disciplinas/MEF/Novos Exemplos/T6_75.odb
   Step: Step_Load
   Frame: Increment      1: Step Time =    1.000

Loc 1 : Nodal values from source 1

Output sorted by column "Node Label".

Field Output reported at nodes for part: PART_GEOMETRY-1
   Computation algorithm: EXTRAPOLATE_COMPUTE_AVERAGE
   Averaged at nodes
   Averaging regions: ODB_REGIONS

      Node Label    RF.Magnitude          RF.RF1          RF.RF2     U.Magnitude            U.U1            U.U2     E.Max. In-P  E.Max. In-P(a)     E.Min. In-P     E.Out-of-Pl     E.Max. Prin  E.Max. Prin(a)     E.Mid. Prin     E.Min. Prin           E.E11           E.E22           E.E33           E.E12         S.Mises     S.Max. In-P  S.Max. In-P(a)     S.Min. In-P     S.Out-of-Pl     S.Max. Prin  S.Max. Prin(a)     S.Mid. Prin     S.Min. Prin        S.Tresca      S.Pressure     S.Third Inv           S.S11           S.S22           S.S33           S.S12
                          @Loc 1          @Loc 1          @Loc 1          @Loc 1          @Loc 1          @Loc 1          @Loc 1          @Loc 1          @Loc 1          @Loc 1          @Loc 1          @Loc 1          @Loc 1          @Loc 1          @Loc 1          @Loc 1          @Loc 1          @Loc 1          @Loc 1          @Loc 1          @Loc 1          @Loc 1          @Loc 1          @Loc 1          @Loc 1          @Loc 1          @Loc 1          @Loc 1          @Loc 1          @Loc 1          @Loc 1          @Loc 1          @Loc 1          @Loc 1
---------------------------------------------------------------------------------------------------------------------------------------------------------------------------------------------------------------------------------------------------------------------------------------------------------------------------------------------------------------------------------------------------------------------------------------------------------------------------------------------------------------------------------------------------------------------------------
               1     540.704E+03     163.624E+03     515.352E+03              0.    -163.624E-33    -515.352E-33     5.28777E-06    -124.553E-06    -124.553E-06              0.     5.28777E-06    -124.553E-06              0.    -124.553E-06    -1.42711E-06    -117.838E-06              0.    -57.5074E-06     24.2807E+06    -7.05013E+06    -27.0256E+06    -27.0256E+06              0.              0.    -27.0256E+06    -7.05013E+06    -27.0256E+06     27.0256E+06     11.3586E+06    -21.7933E+06    -8.08319E+06    -25.9926E+06              0.    -4.42365E+06
               2     772.042E+03     52.4476E+03     770.259E+03              0.    -52.4476E-33    -770.259E-33    -4.32306E-06    -105.743E-06    -105.743E-06              0.              0.    -105.743E-06    -4.32306E-06    -105.743E-06    -5.07246E-06    -104.994E-06              0.    -15.9797E-06     20.7333E+06    -7.92221E+06    -23.5253E+06    -23.5253E+06              0.              0.    -23.5253E+06    -7.92221E+06    -23.5253E+06     23.5253E+06     10.4825E+06    -16.7754E+06    -8.03751E+06    -23.4100E+06              0.    -1.22921E+06
               3     760.051E+03    -14.3427E+03     759.915E+03              0.     14.3427E-33    -759.915E-33    -4.71438E-06    -110.440E-06    -110.440E-06              0.     560.714E-09    -110.440E-06    -5.27510E-06    -110.440E-06    -8.93190E-06    -106.223E-06              0.     35.7315E-06     21.6857E+06    -8.31790E+06    -24.5834E+06    -24.5834E+06              0.              0.    -24.5834E+06    -8.31790E+06    -24.5834E+06     24.5834E+06     10.9671E+06    -17.3126E+06    -8.96675E+06    -23.9346E+06              0.     2.74858E+06
               4     525.744E+03    -147.708E+03     504.569E+03              0.     147.708E-33    -504.569E-33     16.1120E-06    -136.529E-06    -136.529E-06              0.     16.1120E-06    -136.529E-06              0.    -136.529E-06     10.3505E-06    -130.768E-06              0.     58.1808E-06     26.6369E+06    -5.46082E+06    -28.9441E+06    -28.9441E+06              0.              0.    -28.9441E+06    -5.46082E+06    -28.9441E+06     28.9441E+06     11.4683E+06    -25.3311E+06    -6.34721E+06    -28.0577E+06              0.     4.47545E+06
               6        No Value        No Value        No Value        No Value        No Value        No Value     50.6635E-06    -132.570E-06    -132.570E-06              0.     50.6635E-06    -132.570E-06              0.    -132.570E-06     50.6570E-06    -132.564E-06              0.     2.18354E-06     27.0724E+06     2.39393E+06    -25.7959E+06    -25.7959E+06              0.     2.39393E+06    -25.7959E+06              0.    -25.7959E+06     28.1898E+06     7.80066E+06    -26.8327E+06     2.39293E+06    -25.7949E+06              0.     167.964E+03
               7        No Value        No Value        No Value        No Value        No Value        No Value     43.8874E-06    -131.158E-06    -131.158E-06              0.     43.8874E-06    -131.158E-06              0.    -131.158E-06     43.8674E-06    -131.138E-06              0.     3.74290E-06     26.4452E+06     997.822E+03    -25.9322E+06    -25.9322E+06              0.     997.822E+03    -25.9322E+06              0.    -25.9322E+06     26.9300E+06     8.31145E+06    -26.4028E+06     994.744E+03    -25.9291E+06              0.     287.915E+03
               8        No Value        No Value        No Value        No Value        No Value        No Value     69.0867E-06    -128.872E-06    -128.872E-06              0.     69.0867E-06    -128.872E-06              0.    -128.872E-06     67.7009E-06    -127.486E-06              0.    -33.0099E-06     27.7233E+06     6.68687E+06    -23.7683E+06    -23.7683E+06              0.     6.68687E+06    -23.7683E+06              0.    -23.7683E+06     30.4551E+06     5.69379E+06    -25.8136E+06     6.47367E+06    -23.5551E+06              0.    -2.53922E+06
              49        No Value        No Value        No Value        No Value        No Value        No Value     37.5000E-06    -125.000E-06    -125.000E-06              0.     37.5000E-06    -125.000E-06              0.    -125.000E-06     37.5000E-06    -125.000E-06              0.    -114.738E-15     25.0000E+06              0.    -25.0000E+06    -25.0000E+06              0.              0.    -25.0000E+06              0.    -25.0000E+06     25.0000E+06     8.33333E+06    -25.0000E+06     5.10030E-03    -25.0000E+06              0.    -8.82598E-03
              50        No Value        No Value        No Value        No Value        No Value        No Value     37.5000E-06    -125.000E-06    -125.000E-06              0.     37.5000E-06    -125.000E-06              0.    -125.000E-06     37.5000E-06    -125.000E-06              0.    -78.5092E-15     25.0000E+06              0.    -25.0000E+06    -25.0000E+06              0.              0.    -25.0000E+06              0.    -25.0000E+06     25.0000E+06     8.33333E+06    -25.0000E+06     18.4445E-03    -25.0000E+06              0.    -6.03917E-03
              51        No Value        No Value        No Value        No Value        No Value        No Value     37.5000E-06    -125.000E-06    -125.000E-06              0.     37.5000E-06    -125.000E-06              0.    -125.000E-06     37.5000E-06    -125.000E-06              0.     139.166E-15     25.0000E+06              0.    -25.0000E+06    -25.0000E+06              0.              0.    -25.0000E+06              0.    -25.0000E+06     25.0000E+06     8.33333E+06    -25.0000E+06     546.558E-06    -25.0000E+06              0.     10.7051E-03
              53              0.              0.              0.     124.716E-06    -3.81703E-06    -124.657E-06     37.5000E-06    -125.000E-06    -125.000E-06              0.     37.5000E-06    -125.000E-06              0.    -125.000E-06     37.5000E-06    -125.000E-06              0.     5.94599E-15     25.0000E+06              0.    -25.0000E+06    -25.0000E+06              0.              0.    -25.0000E+06              0.    -25.0000E+06     25.0000E+06     8.33333E+06    -25.0000E+06     481.514E-06    -25.0000E+06              0.     457.384E-06
              54              0.              0.              0.     124.659E-06    -1.31703E-06    -124.652E-06     37.5000E-06    -125.000E-06    -125.000E-06              0.     37.5000E-06    -125.000E-06              0.    -125.000E-06     37.5000E-06    -125.000E-06              0.    -81.7018E-15     25.0000E+06              0.    -25.0000E+06    -25.0000E+06              0.              0.    -25.0000E+06              0.    -25.0000E+06     25.0000E+06     8.33333E+06    -25.0000E+06    -23.7933E-03    -25.0000E+06              0.    -6.28475E-03
              55              0.              0.              0.     124.653E-06     1.18297E-06    -124.647E-06     37.5000E-06    -125.000E-06    -125.000E-06              0.     37.5000E-06    -125.000E-06              0.    -125.000E-06     37.5000E-06    -125.000E-06              0.     70.4769E-15     25.0000E+06              0.    -25.0000E+06    -25.0000E+06              0.              0.    -25.0000E+06              0.    -25.0000E+06     25.0000E+06     8.33333E+06    -25.0000E+06    -26.3603E-03    -25.0000E+06              0.     5.42130E-03
              56              0.              0.              0.     124.696E-06     3.68297E-06    -124.642E-06     37.5000E-06    -125.000E-06    -125.000E-06              0.     37.5000E-06    -125.000E-06              0.    -125.000E-06     37.5000E-06    -125.000E-06              0.     45.8691E-15     25.0000E+06              0.    -25.0000E+06    -25.0000E+06              0.              0.    -25.0000E+06              0.    -25.0000E+06     25.0000E+06     8.33333E+06    -25.0000E+06    -2.08354E-03    -25.0000E+06              0.     3.52839E-03
              57     822.922E+03     80.2248E+03     819.003E+03              0.    -80.2248E-33    -819.002E-33     634.840E-09    -114.337E-06    -114.337E-06              0.     634.840E-09    -114.337E-06              0.    -114.337E-06    -2.97983E-06    -110.722E-06              0.    -40.1257E-06     22.3268E+06    -7.39915E+06    -25.0871E+06    -25.0871E+06              0.              0.    -25.0871E+06    -7.39915E+06    -25.0871E+06     25.0871E+06     10.8287E+06    -19.2637E+06    -7.95525E+06    -24.5310E+06              0.    -3.08659E+06
              58        No Value        No Value        No Value        No Value        No Value        No Value     23.2492E-06    -118.272E-06    -118.272E-06              0.     23.2492E-06    -118.272E-06              0.    -118.272E-06     23.0622E-06    -118.085E-06              0.    -10.2802E-06     23.2336E+06    -2.68843E+06    -24.4609E+06    -24.4609E+06              0.              0.    -24.4609E+06    -2.68843E+06    -24.4609E+06     24.4609E+06     9.04977E+06    -22.8798E+06    -2.71719E+06    -24.4321E+06              0.    -790.785E+03
              59        No Value        No Value        No Value        No Value        No Value        No Value     25.8811E-06    -126.467E-06    -126.467E-06              0.     25.8811E-06    -126.467E-06              0.    -126.467E-06     24.6150E-06    -125.201E-06              0.    -27.6619E-06     24.8695E+06    -2.65033E+06    -26.0885E+06    -26.0885E+06              0.              0.    -26.0885E+06    -2.65033E+06    -26.0885E+06     26.0885E+06     9.57962E+06    -24.5488E+06    -2.84513E+06    -25.8937E+06              0.    -2.12784E+06
              62     790.678E+03    -14.0009E+03     790.554E+03              0.     14.0009E-33    -790.554E-33    -2.54428E-06    -106.362E-06    -106.362E-06              0.              0.    -106.362E-06    -2.54428E-06    -106.362E-06    -2.58043E-06    -106.326E-06              0.     3.87423E-06     20.8179E+06    -7.57209E+06    -23.5441E+06    -23.5441E+06              0.              0.    -23.5441E+06    -7.57209E+06    -23.5441E+06     23.5441E+06     10.3721E+06    -17.2850E+06    -7.57765E+06    -23.5386E+06              0.     298.018E+03
              63        No Value        No Value        No Value        No Value        No Value        No Value     22.3494E-06    -118.894E-06    -118.894E-06              0.     22.3494E-06    -118.894E-06              0.    -118.894E-06     22.1594E-06    -118.704E-06              0.     10.3534E-06     23.3315E+06    -2.92720E+06    -24.6570E+06    -24.6570E+06              0.              0.    -24.6570E+06    -2.92720E+06    -24.6570E+06     24.6570E+06     9.19472E+06    -22.9129E+06    -2.95643E+06    -24.6277E+06              0.     796.417E+03
              64        No Value        No Value        No Value        No Value        No Value        No Value     19.1411E-06    -118.773E-06    -118.773E-06              0.     19.1411E-06    -118.773E-06              0.    -118.773E-06     19.1275E-06    -118.760E-06              0.    -2.73629E-06     23.2427E+06    -3.62439E+06    -24.8420E+06    -24.8420E+06              0.              0.    -24.8420E+06    -3.62439E+06    -24.8420E+06     24.8420E+06     9.48880E+06    -22.5938E+06    -3.62648E+06    -24.8399E+06              0.    -210.484E+03
              66     848.908E+03    -120.245E+03     840.349E+03              0.     120.245E-33    -840.349E-33     2.57341E-06    -125.027E-06    -125.027E-06              0.     2.57341E-06    -125.027E-06              0.    -125.027E-06    -3.98241E-06    -118.471E-06              0.     56.3400E-06     24.3936E+06    -7.67797E+06    -27.3088E+06    -27.3088E+06              0.              0.    -27.3088E+06    -7.67797E+06    -27.3088E+06     27.3088E+06     11.6623E+06    -21.4106E+06    -8.68656E+06    -26.3002E+06              0.     4.33385E+06
              67        No Value        No Value        No Value        No Value        No Value        No Value     39.2609E-06    -129.362E-06    -129.362E-06              0.     39.2609E-06    -129.362E-06              0.    -129.362E-06     39.0257E-06    -129.127E-06              0.     12.5855E-06     25.8924E+06     99.4069E+03    -25.8426E+06    -25.8426E+06              0.     99.4069E+03    -25.8426E+06              0.    -25.8426E+06     25.9420E+06     8.58105E+06    -25.8920E+06     63.2289E+03    -25.8064E+06              0.     968.114E+03
              68        No Value        No Value        No Value        No Value        No Value        No Value     24.8965E-06    -117.034E-06    -117.034E-06              0.     24.8965E-06    -117.034E-06              0.    -117.034E-06     24.6928E-06    -116.830E-06              0.     10.7446E-06     23.0400E+06    -2.24479E+06    -24.0803E+06    -24.0803E+06              0.              0.    -24.0803E+06    -2.24479E+06    -24.0803E+06     24.0803E+06     8.77501E+06    -22.7921E+06    -2.27612E+06    -24.0489E+06              0.     826.509E+03
             180        No Value        No Value        No Value        No Value        No Value        No Value     37.5000E-06    -125.000E-06    -125.000E-06              0.     37.5000E-06    -125.000E-06              0.    -125.000E-06     37.5000E-06    -125.000E-06              0.    -76.2833E-15     25.0000E+06              0.    -25.0000E+06    -25.0000E+06              0.              0.    -25.0000E+06              0.    -25.0000E+06     25.0000E+06     8.33333E+06    -25.0000E+06    -5.17560E-03    -25.0000E+06              0.    -5.86795E-03
             181        No Value        No Value        No Value        No Value        No Value        No Value     37.5000E-06    -125.000E-06    -125.000E-06              0.     37.5000E-06    -125.000E-06              0.    -125.000E-06     37.5000E-06    -125.000E-06              0.    -102.042E-15     25.0000E+06              0.    -25.0000E+06    -25.0000E+06              0.              0.    -25.0000E+06              0.    -25.0000E+06     25.0000E+06     8.33333E+06    -25.0000E+06    -6.84537E-03    -25.0000E+06              0.    -7.84937E-03
             182              0.              0.              0.     124.681E-06    -2.56703E-06    -124.655E-06     37.5000E-06    -125.000E-06    -125.000E-06              0.     37.5000E-06    -125.000E-06              0.    -125.000E-06     37.5000E-06    -125.000E-06              0.    -41.7000E-15     25.0000E+06              0.    -25.0000E+06    -25.0000E+06              0.              0.    -25.0000E+06              0.    -25.0000E+06     25.0000E+06     8.33333E+06    -25.0000E+06    -9.15476E-03    -25.0000E+06              0.    -3.20769E-03
             183        No Value        No Value        No Value        No Value        No Value        No Value     37.5000E-06    -125.000E-06    -125.000E-06              0.     37.5000E-06    -125.000E-06              0.    -125.000E-06     37.5000E-06    -125.000E-06              0.    -54.3958E-15     25.0000E+06              0.    -25.0000E+06    -25.0000E+06              0.              0.    -25.0000E+06              0.    -25.0000E+06     25.0000E+06     8.33333E+06    -25.0000E+06     2.79091E-03    -25.0000E+06              0.    -4.18430E-03
             184        No Value        No Value        No Value        No Value        No Value        No Value     37.5000E-06    -125.000E-06    -125.000E-06              0.     37.5000E-06    -125.000E-06              0.    -125.000E-06     37.5000E-06    -125.000E-06              0.     103.139E-15     25.0000E+06              0.    -25.0000E+06    -25.0000E+06              0.              0.    -25.0000E+06              0.    -25.0000E+06     25.0000E+06     8.33333E+06    -25.0000E+06    -10.6089E-03    -25.0000E+06              0.     7.93378E-03
             185        No Value        No Value        No Value        No Value        No Value        No Value     37.5000E-06    -125.000E-06    -125.000E-06              0.     37.5000E-06    -125.000E-06              0.    -125.000E-06     37.5000E-06    -125.000E-06              0.    -2.33363E-15     25.0000E+06              0.    -25.0000E+06    -25.0000E+06              0.              0.    -25.0000E+06              0.    -25.0000E+06     25.0000E+06     8.33333E+06    -25.0000E+06    -6.25593E-03    -25.0000E+06              0.    -179.510E-06
             186              0.              0.              0.     124.650E-06    -67.0331E-09    -124.650E-06     37.5000E-06    -125.000E-06    -125.000E-06              0.     37.5000E-06    -125.000E-06              0.    -125.000E-06     37.5000E-06    -125.000E-06              0.    -107.809E-18     25.0000E+06              0.    -25.0000E+06    -25.0000E+06              0.              0.    -25.0000E+06              0.    -25.0000E+06     25.0000E+06     8.33333E+06    -25.0000E+06    -29.8760E-03    -25.0000E+06              0.    -8.29319E-06
             188        No Value        No Value        No Value        No Value        No Value        No Value     37.5000E-06    -125.000E-06    -125.000E-06              0.     37.5000E-06    -125.000E-06              0.    -125.000E-06     37.5000E-06    -125.000E-06              0.     92.5177E-15     25.0000E+06              0.    -25.0000E+06    -25.0000E+06              0.              0.    -25.0000E+06              0.    -25.0000E+06     25.0000E+06     8.33333E+06    -25.0000E+06    -768.493E-06    -25.0000E+06              0.     7.11675E-03
             189              0.              0.              0.     124.668E-06     2.43297E-06    -124.644E-06     37.5000E-06    -125.000E-06    -125.000E-06              0.     37.5000E-06    -125.000E-06              0.    -125.000E-06     37.5000E-06    -125.000E-06              0.     56.4906E-15     25.0000E+06              0.    -25.0000E+06    -25.0000E+06              0.              0.    -25.0000E+06              0.    -25.0000E+06     25.0000E+06     8.33333E+06    -25.0000E+06    -11.9239E-03    -25.0000E+06              0.     4.34543E-03


  Minimum                     0.    -147.708E+03              0.              0.    -3.81703E-06    -124.657E-06    -4.71438E-06    -136.529E-06    -136.529E-06              0.              0.    -136.529E-06    -5.27510E-06    -136.529E-06    -8.93190E-06    -132.564E-06              0.    -57.5074E-06     20.7333E+06    -8.31790E+06    -28.9441E+06    -28.9441E+06              0.              0.    -28.9441E+06    -8.31790E+06    -28.9441E+06     23.5253E+06     5.69379E+06    -26.8327E+06    -8.96675E+06    -28.0577E+06              0.    -4.42365E+06
         At Node             189               4             189              66              53              53               3               4               4             189              62               4               3               4               3               6             189               1               2               3               4               4             189             189               4               3               4               2               8               6               3               4             189               1

  Maximum            848.908E+03     163.624E+03     840.349E+03     124.716E-06     3.68297E-06    -504.569E-33     69.0867E-06    -105.743E-06    -105.743E-06              0.     69.0867E-06    -105.743E-06              0.    -105.743E-06     67.7009E-06    -104.994E-06              0.     58.1808E-06     27.7233E+06     6.68687E+06    -23.5253E+06    -23.5253E+06              0.     6.68687E+06    -23.5253E+06              0.    -23.5253E+06     30.4551E+06     11.6623E+06    -16.7754E+06     6.47367E+06    -23.4100E+06              0.     4.47545E+06
         At Node              66               1              66              53              56               4               8               2               2             189               8               2             189               2               8               2             189               4               8               8               2               2             189               8               2             189               2               8              66               2               8               2             189               4

           Total     5.06105E+06     8.78906E-03     5.00000E+06     872.723E-06    -469.233E-09    -872.547E-06     931.442E-06    -3.94439E-03    -3.94439E-03              0.     943.584E-06    -3.94439E-03    -12.1424E-06    -3.94439E-03     900.284E-06    -3.91324E-03              0.     6.43544E-06     785.725E+06    -55.3574E+06    -805.486E+06    -805.486E+06              0.     10.1780E+06    -805.486E+06    -65.5354E+06    -805.486E+06     815.664E+06     286.948E+06    -759.840E+06    -60.1509E+06    -800.692E+06              0.     495.034E+03


