********************************************************************************
Field Output Report, written Sat Jun 23 00:49:10 2018

Source 1
---------

   ODB: C:/Users/lucas_omena/Dropbox/Mestrado/Disciplinas/MEF/Novos Exemplos/T6_90.odb
   Step: Step_Load
   Frame: Increment      1: Step Time =    1.000

Loc 1 : Nodal values from source 1

Output sorted by column "Node Label".

Field Output reported at nodes for part: PART_GEOMETRY-1
   Computation algorithm: EXTRAPOLATE_COMPUTE_AVERAGE
   Averaged at nodes
   Averaging regions: ODB_REGIONS

      Node Label    RF.Magnitude          RF.RF1          RF.RF2     U.Magnitude            U.U1            U.U2     E.Max. In-P  E.Max. In-P(a)     E.Min. In-P     E.Out-of-Pl     E.Max. Prin  E.Max. Prin(a)     E.Mid. Prin     E.Min. Prin           E.E11           E.E22           E.E33           E.E12         S.Mises     S.Max. In-P  S.Max. In-P(a)     S.Min. In-P     S.Out-of-Pl     S.Max. Prin  S.Max. Prin(a)     S.Mid. Prin     S.Min. Prin        S.Tresca      S.Pressure     S.Third Inv           S.S11           S.S22           S.S33           S.S12
                          @Loc 1          @Loc 1          @Loc 1          @Loc 1          @Loc 1          @Loc 1          @Loc 1          @Loc 1          @Loc 1          @Loc 1          @Loc 1          @Loc 1          @Loc 1          @Loc 1          @Loc 1          @Loc 1          @Loc 1          @Loc 1          @Loc 1          @Loc 1          @Loc 1          @Loc 1          @Loc 1          @Loc 1          @Loc 1          @Loc 1          @Loc 1          @Loc 1          @Loc 1          @Loc 1          @Loc 1          @Loc 1          @Loc 1          @Loc 1
---------------------------------------------------------------------------------------------------------------------------------------------------------------------------------------------------------------------------------------------------------------------------------------------------------------------------------------------------------------------------------------------------------------------------------------------------------------------------------------------------------------------------------------------------------------------------------
               1     747.102E+03     205.663E+03     718.237E+03              0.    -205.663E-33    -718.237E-33     708.415E-09    -117.835E-06    -117.835E-06              0.     708.415E-09    -117.835E-06              0.    -117.835E-06    -4.25611E-06    -112.870E-06              0.    -47.4916E-06     23.0092E+06    -7.61362E+06    -25.8510E+06    -25.8510E+06              0.              0.    -25.8510E+06    -7.61362E+06    -25.8510E+06     25.8510E+06     11.1549E+06    -19.8634E+06    -8.37739E+06    -25.0872E+06              0.    -3.65320E+06
               2     1.14574E+06     31.8414E+03     1.14530E+06              0.    -31.8414E-33    -1.14530E-30    -8.51450E-06    -104.764E-06    -104.764E-06              0.              0.    -104.764E-06    -8.51450E-06    -104.764E-06    -9.75654E-06    -103.522E-06              0.     13.5904E-06     20.6897E+06    -8.77881E+06    -23.5864E+06    -23.5864E+06              0.              0.    -23.5864E+06    -8.77881E+06    -23.5864E+06     23.5864E+06     10.7884E+06    -15.1574E+06    -8.96989E+06    -23.3953E+06              0.     1.04542E+06
               3     732.018E+03    -178.341E+03     709.961E+03              0.     178.341E-33    -709.961E-33     15.3651E-06    -130.495E-06    -130.495E-06              0.     15.3651E-06    -130.495E-06              0.    -130.495E-06     10.1513E-06    -125.281E-06              0.     54.1588E-06     25.4593E+06    -5.22712E+06    -27.6671E+06    -27.6671E+06              0.              0.    -27.6671E+06    -5.22712E+06    -27.6671E+06     27.6671E+06     10.9648E+06    -24.2074E+06    -6.02924E+06    -26.8650E+06              0.     4.16606E+06
               5        No Value        No Value        No Value        No Value        No Value        No Value     50.1249E-06    -133.184E-06    -133.184E-06              0.     50.1249E-06    -133.184E-06              0.    -133.184E-06     50.1002E-06    -133.159E-06              0.     4.25250E-06     27.1528E+06     2.23513E+06    -25.9662E+06    -25.9662E+06              0.     2.23513E+06    -25.9662E+06              0.    -25.9662E+06     28.2013E+06     7.91035E+06    -26.9447E+06     2.23133E+06    -25.9624E+06              0.     327.115E+03
               6        No Value        No Value        No Value        No Value        No Value        No Value     66.2653E-06    -130.648E-06    -130.648E-06              0.     66.2653E-06    -130.648E-06              0.    -130.648E-06     65.6514E-06    -130.034E-06              0.    -21.9539E-06     27.8011E+06     5.94967E+06    -24.3446E+06    -24.3446E+06              0.     5.94967E+06    -24.3446E+06              0.    -24.3446E+06     30.2943E+06     6.13165E+06    -26.3109E+06     5.85523E+06    -24.2502E+06              0.    -1.68876E+06
              31        No Value        No Value        No Value        No Value        No Value        No Value     37.5000E-06    -125.000E-06    -125.000E-06              0.     37.5000E-06    -125.000E-06              0.    -125.000E-06     37.5000E-06    -125.000E-06              0.    -228.982E-15     25.0000E+06              0.    -25.0000E+06    -25.0000E+06              0.              0.    -25.0000E+06              0.    -25.0000E+06     25.0000E+06     8.33333E+06    -25.0000E+06     31.4235E-03    -25.0000E+06              0.    -17.6140E-03
              32        No Value        No Value        No Value        No Value        No Value        No Value     37.5000E-06    -125.000E-06    -125.000E-06              0.     37.5000E-06    -125.000E-06              0.    -125.000E-06     37.5000E-06    -125.000E-06              0.    -5.52172E-15     25.0000E+06              0.    -25.0000E+06    -25.0000E+06              0.              0.    -25.0000E+06              0.    -25.0000E+06     25.0000E+06     8.33333E+06    -25.0000E+06     43.5502E-03    -25.0000E+06              0.    -424.747E-06
              34              0.              0.              0.     124.695E-06    -3.76585E-06    -124.638E-06     37.5000E-06    -125.000E-06    -125.000E-06              0.     37.5000E-06    -125.000E-06              0.    -125.000E-06     37.5000E-06    -125.000E-06              0.    -104.591E-15     25.0000E+06              0.    -25.0000E+06    -25.0000E+06              0.              0.    -25.0000E+06              0.    -25.0000E+06     25.0000E+06     8.33333E+06    -25.0000E+06    -7.86048E-03    -25.0000E+06              0.    -8.04549E-03
              35              0.              0.              0.     124.636E-06    -15.8522E-09    -124.636E-06     37.5000E-06    -125.000E-06    -125.000E-06              0.     37.5000E-06    -125.000E-06              0.    -125.000E-06     37.5000E-06    -125.000E-06              0.    -63.8375E-15     25.0000E+06              0.    -25.0000E+06    -25.0000E+06              0.              0.    -25.0000E+06              0.    -25.0000E+06     25.0000E+06     8.33333E+06    -25.0000E+06    -72.0984E-03    -25.0000E+06              0.    -4.91058E-03
              36              0.              0.              0.     124.689E-06     3.73415E-06    -124.633E-06     37.5000E-06    -125.000E-06    -125.000E-06              0.     37.5000E-06    -125.000E-06              0.    -125.000E-06     37.5000E-06    -125.000E-06              0.     320.683E-15     25.0000E+06              0.    -25.0000E+06    -25.0000E+06              0.              0.    -25.0000E+06              0.    -25.0000E+06     25.0000E+06     8.33333E+06    -25.0000E+06    -30.2664E-03    -25.0000E+06              0.     24.6679E-03
              37     1.20714E+06     72.3298E+03     1.20498E+06              0.    -72.3298E-33    -1.20498E-30    -1.50119E-06    -109.898E-06    -109.898E-06              0.              0.    -109.898E-06    -1.50119E-06    -109.898E-06    -2.94707E-06    -108.452E-06              0.    -24.8707E-06     21.4903E+06    -7.57592E+06    -24.2523E+06    -24.2523E+06              0.              0.    -24.2523E+06    -7.57592E+06    -24.2523E+06     24.2523E+06     10.6094E+06    -18.0977E+06    -7.79837E+06    -24.0298E+06              0.    -1.91313E+06
              38        No Value        No Value        No Value        No Value        No Value        No Value     24.2328E-06    -118.598E-06    -118.598E-06              0.     24.2328E-06    -118.598E-06              0.    -118.598E-06     24.2311E-06    -118.596E-06              0.     1.00137E-06     23.3210E+06    -2.49373E+06    -24.4677E+06    -24.4677E+06              0.              0.    -24.4677E+06    -2.49373E+06    -24.4677E+06     24.4677E+06     8.98714E+06    -23.0182E+06    -2.49400E+06    -24.4674E+06              0.     77.0283E+03
              39        No Value        No Value        No Value        No Value        No Value        No Value     23.7184E-06    -123.811E-06    -123.811E-06              0.     23.7184E-06    -123.811E-06              0.    -123.811E-06     22.9221E-06    -123.014E-06              0.    -21.6196E-06     24.3067E+06    -2.95052E+06    -25.6473E+06    -25.6473E+06              0.              0.    -25.6473E+06    -2.95052E+06    -25.6473E+06     25.6473E+06     9.53261E+06    -23.8989E+06    -3.07303E+06    -25.5248E+06              0.    -1.66304E+06
              42     1.22858E+06    -131.493E+03     1.22153E+06              0.     131.493E-33    -1.22153E-30    -34.8797E-09    -117.973E-06    -117.973E-06              0.              0.    -117.973E-06    -34.8797E-09    -117.973E-06    -3.86185E-06    -114.146E-06              0.     41.7947E-06     23.0458E+06    -7.78607E+06    -25.9303E+06    -25.9303E+06              0.              0.    -25.9303E+06    -7.78607E+06    -25.9303E+06     25.9303E+06     11.2388E+06    -19.7437E+06    -8.37484E+06    -25.3416E+06              0.     3.21497E+06
              43        No Value        No Value        No Value        No Value        No Value        No Value     38.2920E-06    -128.048E-06    -128.048E-06              0.     38.2920E-06    -128.048E-06              0.    -128.048E-06     37.9014E-06    -127.658E-06              0.     16.1025E-06     25.6043E+06    -26.9094E+03    -25.6177E+06    -25.6177E+06              0.              0.    -25.6177E+06    -26.9094E+03    -25.6177E+06     25.6177E+06     8.54820E+06    -25.6042E+06    -87.0042E+03    -25.5576E+06              0.     1.23865E+06
              44        No Value        No Value        No Value        No Value        No Value        No Value     23.9131E-06    -116.547E-06    -116.547E-06              0.     23.9131E-06    -116.547E-06              0.    -116.547E-06     23.8882E-06    -116.522E-06              0.     3.73834E-06     22.9203E+06    -2.42878E+06    -24.0380E+06    -24.0380E+06              0.              0.    -24.0380E+06    -2.42878E+06    -24.0380E+06     24.0380E+06     8.82225E+06    -22.6281E+06    -2.43261E+06    -24.0342E+06              0.     287.565E+03
             109        No Value        No Value        No Value        No Value        No Value        No Value     37.5000E-06    -125.000E-06    -125.000E-06              0.     37.5000E-06    -125.000E-06              0.    -125.000E-06     37.5000E-06    -125.000E-06              0.     7.38489E-15     25.0000E+06              0.    -25.0000E+06    -25.0000E+06              0.              0.    -25.0000E+06              0.    -25.0000E+06     25.0000E+06     8.33333E+06    -25.0000E+06    -18.1689E-03    -25.0000E+06              0.     568.069E-06
             110        No Value        No Value        No Value        No Value        No Value        No Value     37.5000E-06    -125.000E-06    -125.000E-06              0.     37.5000E-06    -125.000E-06              0.    -125.000E-06     37.5000E-06    -125.000E-06              0.    -188.474E-15     25.0000E+06              0.    -25.0000E+06    -25.0000E+06              0.              0.    -25.0000E+06              0.    -25.0000E+06     25.0000E+06     8.33333E+06    -25.0000E+06    -16.4427E-03    -25.0000E+06              0.    -14.4980E-03
             111              0.              0.              0.     124.651E-06    -1.89085E-06    -124.637E-06     37.5000E-06    -125.000E-06    -125.000E-06              0.     37.5000E-06    -125.000E-06              0.    -125.000E-06     37.5000E-06    -125.000E-06              0.    -126.279E-15     25.0000E+06              0.    -25.0000E+06    -25.0000E+06              0.              0.    -25.0000E+06              0.    -25.0000E+06     25.0000E+06     8.33333E+06    -25.0000E+06    -36.0847E-03    -25.0000E+06              0.    -9.71377E-03
             112        No Value        No Value        No Value        No Value        No Value        No Value     37.5000E-06    -125.000E-06    -125.000E-06              0.     37.5000E-06    -125.000E-06              0.    -125.000E-06     37.5000E-06    -125.000E-06              0.    -166.787E-15     25.0000E+06              0.    -25.0000E+06    -25.0000E+06              0.              0.    -25.0000E+06              0.    -25.0000E+06     25.0000E+06     8.33333E+06    -25.0000E+06     11.7815E-03    -25.0000E+06              0.    -12.8297E-03
             114        No Value        No Value        No Value        No Value        No Value        No Value     37.5000E-06    -125.000E-06    -125.000E-06              0.     37.5000E-06    -125.000E-06              0.    -125.000E-06     37.5000E-06    -125.000E-06              0.     157.581E-15     25.0000E+06              0.    -25.0000E+06    -25.0000E+06              0.              0.    -25.0000E+06              0.    -25.0000E+06     25.0000E+06     8.33333E+06    -25.0000E+06     6.64189E-03    -25.0000E+06              0.     12.1216E-03
             115              0.              0.              0.     124.648E-06     1.85915E-06    -124.635E-06     37.5000E-06    -125.000E-06    -125.000E-06              0.     37.5000E-06    -125.000E-06              0.    -125.000E-06     37.5000E-06    -125.000E-06              0.     170.487E-15     25.0000E+06              0.    -25.0000E+06    -25.0000E+06              0.              0.    -25.0000E+06              0.    -25.0000E+06     25.0000E+06     8.33333E+06    -25.0000E+06    -55.0772E-03    -25.0000E+06              0.     13.1144E-03


  Minimum                     0.    -178.341E+03              0.              0.    -3.76585E-06    -124.638E-06    -8.51450E-06    -133.184E-06    -133.184E-06              0.              0.    -133.184E-06    -8.51450E-06    -133.184E-06    -9.75654E-06    -133.159E-06              0.    -47.4916E-06     20.6897E+06    -8.77881E+06    -27.6671E+06    -27.6671E+06              0.              0.    -27.6671E+06    -8.77881E+06    -27.6671E+06     23.5864E+06     6.13165E+06    -26.9447E+06    -8.96989E+06    -26.8650E+06              0.    -3.65320E+06
         At Node             115               3             115              42              34              34               2               5               5             115              42               5               2               5               2               5             115               1               2               2               3               3             115             115               3               2               3               2               6               5               2               3             115               1

  Maximum            1.22858E+06     205.663E+03     1.22153E+06     124.695E-06     3.73415E-06    -709.961E-33     66.2653E-06    -104.764E-06    -104.764E-06              0.     66.2653E-06    -104.764E-06              0.    -104.764E-06     65.6514E-06    -103.522E-06              0.     54.1588E-06     27.8011E+06     5.94967E+06    -23.5864E+06    -23.5864E+06              0.     5.94967E+06    -23.5864E+06              0.    -23.5864E+06     30.2943E+06     11.2388E+06    -15.1574E+06     5.85523E+06    -23.3953E+06              0.     4.16606E+06
         At Node              42               1              42              34              36               3               6               2               2             115               6               2             115               2               6               2             115               3               6               6               2               2             115               6               2             115               2               6              42               2               6               2             115               3

           Total     5.06059E+06     5.85938E-03     5.00000E+06     623.319E-06    -79.2607E-09    -623.178E-06     645.069E-06    -2.70680E-03    -2.70680E-03              0.     655.120E-06    -2.70680E-03    -10.0506E-06    -2.70680E-03     626.524E-06    -2.68825E-03              0.     18.7028E-06     539.801E+06    -36.6967E+06    -552.369E+06    -552.369E+06              0.     8.18479E+06    -552.369E+06    -44.8815E+06    -552.369E+06     560.553E+06     196.355E+06    -520.474E+06    -39.5498E+06    -549.515E+06              0.     1.43868E+06


